 Entering Gaussian System, Link 0=g16
 Input=cisplatin_opt_freq_m06.com
 Output=cisplatin_opt_freq_m06.log
 Initial command:
 /afs/crc.nd.edu/x86_64_linux/g/gaussian/16/C01/g16/l1.exe "/tmp/812364.1.long/Gau-769366.inp" -scrdir="/tmp/812364.1.long/"
 Entering Link 1 = /afs/crc.nd.edu/x86_64_linux/g/gaussian/16/C01/g16/l1.exe PID=    769367.
  
 Copyright (c) 1988-2019, Gaussian, Inc.  All Rights Reserved.
  
 This is part of the Gaussian(R) 16 program.  It is based on
 the Gaussian(R) 09 system (copyright 2009, Gaussian, Inc.),
 the Gaussian(R) 03 system (copyright 2003, Gaussian, Inc.),
 the Gaussian(R) 98 system (copyright 1998, Gaussian, Inc.),
 the Gaussian(R) 94 system (copyright 1995, Gaussian, Inc.),
 the Gaussian 92(TM) system (copyright 1992, Gaussian, Inc.),
 the Gaussian 90(TM) system (copyright 1990, Gaussian, Inc.),
 the Gaussian 88(TM) system (copyright 1988, Gaussian, Inc.),
 the Gaussian 86(TM) system (copyright 1986, Carnegie Mellon
 University), and the Gaussian 82(TM) system (copyright 1983,
 Carnegie Mellon University). Gaussian is a federally registered
 trademark of Gaussian, Inc.
  
 This software contains proprietary and confidential information,
 including trade secrets, belonging to Gaussian, Inc.
  
 This software is provided under written license and may be
 used, copied, transmitted, or stored only in accord with that
 written license.
  
 The following legend is applicable only to US Government
 contracts under FAR:
  
                    RESTRICTED RIGHTS LEGEND
  
 Use, reproduction and disclosure by the US Government is
 subject to restrictions as set forth in subparagraphs (a)
 and (c) of the Commercial Computer Software - Restricted
 Rights clause in FAR 52.227-19.
  
 Gaussian, Inc.
 340 Quinnipiac St., Bldg. 40, Wallingford CT 06492
  
  
 ---------------------------------------------------------------
 Warning -- This program may not be used in any manner that
 competes with the business of Gaussian, Inc. or will provide
 assistance to any competitor of Gaussian, Inc.  The licensee
 of this program is prohibited from giving any competitor of
 Gaussian, Inc. access to this program.  By using this program,
 the user acknowledges that Gaussian, Inc. is engaged in the
 business of creating and licensing software in the field of
 computational chemistry and represents and warrants to the
 licensee that it is not a competitor of Gaussian, Inc. and that
 it will not use this program in any manner prohibited above.
 ---------------------------------------------------------------
  

 Cite this work as:
 Gaussian 16, Revision C.01,
 M. J. Frisch, G. W. Trucks, H. B. Schlegel, G. E. Scuseria, 
 M. A. Robb, J. R. Cheeseman, G. Scalmani, V. Barone, 
 G. A. Petersson, H. Nakatsuji, X. Li, M. Caricato, A. V. Marenich, 
 J. Bloino, B. G. Janesko, R. Gomperts, B. Mennucci, H. P. Hratchian, 
 J. V. Ortiz, A. F. Izmaylov, J. L. Sonnenberg, D. Williams-Young, 
 F. Ding, F. Lipparini, F. Egidi, J. Goings, B. Peng, A. Petrone, 
 T. Henderson, D. Ranasinghe, V. G. Zakrzewski, J. Gao, N. Rega, 
 G. Zheng, W. Liang, M. Hada, M. Ehara, K. Toyota, R. Fukuda, 
 J. Hasegawa, M. Ishida, T. Nakajima, Y. Honda, O. Kitao, H. Nakai, 
 T. Vreven, K. Throssell, J. A. Montgomery, Jr., J. E. Peralta, 
 F. Ogliaro, M. J. Bearpark, J. J. Heyd, E. N. Brothers, K. N. Kudin, 
 V. N. Staroverov, T. A. Keith, R. Kobayashi, J. Normand, 
 K. Raghavachari, A. P. Rendell, J. C. Burant, S. S. Iyengar, 
 J. Tomasi, M. Cossi, J. M. Millam, M. Klene, C. Adamo, R. Cammi, 
 J. W. Ochterski, R. L. Martin, K. Morokuma, O. Farkas, 
 J. B. Foresman, and D. J. Fox, Gaussian, Inc., Wallingford CT, 2019.
 
 ******************************************
 Gaussian 16:  ES64L-G16RevC.01  3-Jul-2019
                12-Sep-2024 
 ******************************************
 %chk=cisplatin_opt_freq_m06.chk
 ----------------------------------------------------------------------
 # opt freq=noraman m062x/genecp empiricaldispersion=gd3 pop=(readradii
 ,esp,saveesp)
 ----------------------------------------------------------------------
 1/18=20,19=15,26=3,38=1/1,3;
 2/9=110,12=2,17=6,18=5,40=1/2;
 3/5=7,11=2,16=1,17=8,25=1,30=1,71=1,74=-55,124=31/1,2,3;
 4//1;
 5/5=2,38=5/2;
 6/7=2,8=2,9=2,10=2,15=8,20=100,28=1/1,2;
 7//1,2,3,16;
 1/18=20,19=15,26=3/3(2);
 2/9=110/2;
 99/20=2/99;
 2/9=110/2;
 3/5=7,6=1,11=2,16=1,17=8,25=1,30=1,71=1,74=-55,82=7,124=31/1,2,3;
 4/5=5,16=3,69=1/1;
 5/5=2,38=5/2;
 7//1,2,3,16;
 1/18=20,19=15,26=3/3(-5);
 2/9=110/2;
 6/7=2,8=2,9=2,10=2,15=8,19=2,20=100,28=1/1,2;
 99/9=1,20=2/99;
 ------------------
 Cisplatin Opt Freq
 ------------------
 Symbolic Z-matrix:
 Charge =  0 Multiplicity = 1
 Pt                   -0.1836   -0.16524   0. 
 Cl                   -2.4636   -0.16524   0. 
 Cl                   -0.1836   -2.44524   0. 
 N                    -0.1836    1.82476   0. 
 H                     0.28622   2.15809   0.81741 
 H                     0.28939   2.15809  -0.81558 
 N                     1.8064   -0.16524   0. 
 H                     2.13973   0.30612  -0.81653 
 H                     2.13973   0.30622   0.81647 
 H                    -1.12641   2.15809  -0.00183 
 H                     2.13973  -1.10805   0.00006 
 

 GradGradGradGradGradGradGradGradGradGradGradGradGradGradGradGradGradGrad
 Berny optimization.
 Initialization pass.
                           ----------------------------
                           !    Initial Parameters    !
                           ! (Angstroms and Degrees)  !
 --------------------------                            --------------------------
 ! Name  Definition              Value          Derivative Info.                !
 --------------------------------------------------------------------------------
 ! R1    R(1,2)                  2.28           estimate D2E/DX2                !
 ! R2    R(1,3)                  2.28           estimate D2E/DX2                !
 ! R3    R(1,4)                  1.99           estimate D2E/DX2                !
 ! R4    R(1,7)                  1.99           estimate D2E/DX2                !
 ! R5    R(4,5)                  1.0            estimate D2E/DX2                !
 ! R6    R(4,6)                  1.0            estimate D2E/DX2                !
 ! R7    R(4,10)                 1.0            estimate D2E/DX2                !
 ! R8    R(7,8)                  1.0            estimate D2E/DX2                !
 ! R9    R(7,9)                  1.0            estimate D2E/DX2                !
 ! R10   R(7,11)                 1.0            estimate D2E/DX2                !
 ! A1    A(2,1,3)               90.0            estimate D2E/DX2                !
 ! A2    A(2,1,4)               90.0            estimate D2E/DX2                !
 ! A3    A(3,1,7)               90.0            estimate D2E/DX2                !
 ! A4    A(4,1,7)               90.0            estimate D2E/DX2                !
 ! A5    A(1,4,5)              109.4712         estimate D2E/DX2                !
 ! A6    A(1,4,6)              109.4712         estimate D2E/DX2                !
 ! A7    A(1,4,10)             109.4712         estimate D2E/DX2                !
 ! A8    A(5,4,6)              109.4712         estimate D2E/DX2                !
 ! A9    A(5,4,10)             109.4712         estimate D2E/DX2                !
 ! A10   A(6,4,10)             109.4712         estimate D2E/DX2                !
 ! A11   A(1,7,8)              109.4712         estimate D2E/DX2                !
 ! A12   A(1,7,9)              109.4712         estimate D2E/DX2                !
 ! A13   A(1,7,11)             109.4712         estimate D2E/DX2                !
 ! A14   A(8,7,9)              109.4712         estimate D2E/DX2                !
 ! A15   A(8,7,11)             109.4712         estimate D2E/DX2                !
 ! A16   A(9,7,11)             109.4712         estimate D2E/DX2                !
 ! A17   L(2,1,7,4,-1)         180.0            estimate D2E/DX2                !
 ! A18   L(3,1,4,7,-1)         180.0            estimate D2E/DX2                !
 ! A19   L(2,1,7,4,-2)         180.0            estimate D2E/DX2                !
 ! A20   L(3,1,4,7,-2)         180.0            estimate D2E/DX2                !
 ! D1    D(2,1,4,5)            119.8889         estimate D2E/DX2                !
 ! D2    D(2,1,4,6)           -120.1111         estimate D2E/DX2                !
 ! D3    D(2,1,4,10)            -0.1111         estimate D2E/DX2                !
 ! D4    D(7,1,4,5)            -60.1111         estimate D2E/DX2                !
 ! D5    D(7,1,4,6)             59.8889         estimate D2E/DX2                !
 ! D6    D(7,1,4,10)           179.8889         estimate D2E/DX2                !
 ! D7    D(3,1,7,8)            119.9965         estimate D2E/DX2                !
 ! D8    D(3,1,7,9)           -120.0035         estimate D2E/DX2                !
 ! D9    D(3,1,7,11)            -0.0035         estimate D2E/DX2                !
 ! D10   D(4,1,7,8)            -60.0035         estimate D2E/DX2                !
 ! D11   D(4,1,7,9)             59.9965         estimate D2E/DX2                !
 ! D12   D(4,1,7,11)           179.9965         estimate D2E/DX2                !
 --------------------------------------------------------------------------------
 Trust Radius=3.00D-01 FncErr=1.00D-07 GrdErr=1.00D-06 EigMax=2.50D+02 EigMin=1.00D-04
 Number of steps in this run=     52 maximum allowed number of steps=    100.
 GradGradGradGradGradGradGradGradGradGradGradGradGradGradGradGradGradGrad

                          Input orientation:                          
 ---------------------------------------------------------------------
 Center     Atomic      Atomic             Coordinates (Angstroms)
 Number     Number       Type             X           Y           Z
 ---------------------------------------------------------------------
      1         78           0       -0.183599   -0.165239    0.000000
      2         17           0       -2.463599   -0.165239    0.000000
      3         17           0       -0.183599   -2.445239    0.000000
      4          7           0       -0.183599    1.824761    0.000000
      5          1           0        0.286222    2.158095    0.817409
      6          1           0        0.289388    2.158095   -0.815581
      7          7           0        1.806401   -0.165239    0.000000
      8          1           0        2.139735    0.306116   -0.816525
      9          1           0        2.139735    0.306216    0.816468
     10          1           0       -1.126406    2.158095   -0.001828
     11          1           0        2.139735   -1.108048    0.000058
 ---------------------------------------------------------------------
                    Distance matrix (angstroms):
                    1          2          3          4          5
     1  Pt   0.000000
     2  Cl   2.280000   0.000000
     3  Cl   2.280000   3.224407   0.000000
     4  N    1.990000   3.026301   4.270000   0.000000
     5  H    2.507343   3.691551   4.698890   1.000000   0.000000
     6  H    2.507343   3.693506   4.698890   1.000000   1.632993
     7  N    1.990000   4.270000   3.026301   2.814285   2.894302
     8  H    2.507343   4.698890   3.692498   2.893246   3.087892
     9  H    2.507343   4.698890   3.692560   2.893178   2.620108
    10  H    2.507343   2.680665   4.698890   1.000000   1.632993
    11  H    2.507343   4.698890   2.680664   3.741557   3.843340
                    6          7          8          9         10
     6  H    0.000000
     7  N    2.892124   0.000000
     8  H    2.617940   1.000000   0.000000
     9  H    3.084934   1.000000   1.632993   0.000000
    10  H    1.632993   3.741556   3.842035   3.842751   0.000000
    11  H    3.841450   1.000000   1.632993   1.632993   4.619022
                   11
    11  H    0.000000
 Stoichiometry    Cl2H6N2Pt
 Framework group  C1[X(Cl2H6N2Pt)]
 Deg. of freedom    27
 Full point group                 C1      NOp   1
 Largest Abelian subgroup         C1      NOp   1
 Largest concise Abelian subgroup C1      NOp   1
                         Standard orientation:                         
 ---------------------------------------------------------------------
 Center     Atomic      Atomic             Coordinates (Angstroms)
 Number     Number       Type             X           Y           Z
 ---------------------------------------------------------------------
      1         78           0        0.000000    0.191347    0.000000
      2         17           0       -1.612203   -1.420856    0.000000
      3         17           0        1.612203   -1.420856    0.000000
      4          7           0       -1.407143    1.598490    0.000000
      5          1           0       -1.310632    2.166405    0.817409
      6          1           0       -1.308393    2.168644   -0.815581
      7          7           0        1.407142    1.598490    0.000000
      8          1           0        1.309547    2.167490   -0.816525
      9          1           0        1.309476    2.167561    0.816468
     10          1           0       -2.309510    1.167527   -0.001828
     11          1           0        2.309511    1.167526    0.000058
 ---------------------------------------------------------------------
 Rotational constants (GHZ):           2.0700605           1.9619717           1.0181917
 General basis read from cards:  (5D, 7F)
 ======================================================================================================
                                       Pseudopotential Parameters
 ======================================================================================================
  Center     Atomic      Valence      Angular      Power
  Number     Number     Electrons     Momentum     of R      Exponent        Coefficient   SO-Coeffient
 ======================================================================================================
    1         78           18
                                      H and up 
                                                     2        1.0000000        0.00000000    0.00000000
                                      S - H
                                                     2       13.4286510      579.22386100    0.00000000
                                                     2        6.7143260       29.66949100    0.00000000
                                      P - H
                                                     2       10.3659440      280.86077400    0.00000000
                                                     2        5.1829720       26.74538200    0.00000000
                                      D - H
                                                     2        7.6004790      120.39644400    0.00000000
                                                     2        3.8002400       15.81092100    0.00000000
                                      F - H
                                                     2        3.3095690       24.31437600    0.00000000
                                      G - H
                                                     2        5.2772890      -24.21867500    0.00000000
    2         17
                                   No pseudopotential on this center.
    3         17
                                   No pseudopotential on this center.
    4          7
                                   No pseudopotential on this center.
    5          1
                                   No pseudopotential on this center.
    6          1
                                   No pseudopotential on this center.
    7          7
                                   No pseudopotential on this center.
    8          1
                                   No pseudopotential on this center.
    9          1
                                   No pseudopotential on this center.
   10          1
                                   No pseudopotential on this center.
   11          1
                                   No pseudopotential on this center.
 ======================================================================================================
 There are   137 symmetry adapted cartesian basis functions of A   symmetry.
 There are   130 symmetry adapted basis functions of A   symmetry.
   130 basis functions,   267 primitive gaussians,   137 cartesian basis functions
    36 alpha electrons       36 beta electrons
       nuclear repulsion energy       420.2294367260 Hartrees.
 NAtoms=   11 NActive=   11 NUniq=   11 SFac= 1.00D+00 NAtFMM=   60 NAOKFM=F Big=F
 Integral buffers will be    131072 words long.
 Raffenetti 2 integral format.
 Two-electron integral symmetry is turned on.
 Nuclear repulsion after empirical dispersion term =      420.2292053028 Hartrees.
 One-electron integrals computed using PRISM.
   1 Symmetry operations used in ECPInt.
 ECPInt:  NShTT=    1275 NPrTT=    5909 LenC2=    1256 LenP2D=    4519.
 LDataN:  DoStor=T MaxTD1= 7 Len=  274
 NBasis=   130 RedAO= T EigKep=  6.65D-03  NBF=   130
 NBsUse=   130 1.00D-06 EigRej= -1.00D+00 NBFU=   130
 Defaulting to unpruned grid for atomic number  78.
 ExpMin= 1.50D-02 ExpMax= 2.52D+04 ExpMxC= 3.78D+03 IAcc=3 IRadAn=         5 AccDes= 0.00D+00
 Harris functional with IExCor= 1009 and IRadAn=       5 diagonalized for initial guess.
 HarFok:  IExCor= 1009 AccDes= 0.00D+00 IRadAn=         5 IDoV= 1 UseB2=F ITyADJ=14
 ICtDFT=  3500011 ScaDFX=  1.000000  1.000000  1.000000  1.000000
 Defaulting to unpruned grid for atomic number  78.
 FoFCou: FMM=F IPFlag=           0 FMFlag=      100000 FMFlg1=           0
         NFxFlg=           0 DoJE=T BraDBF=F KetDBF=T FulRan=T
         wScrn=  0.000000 ICntrl=       500 IOpCl=  0 I1Cent=   200000004 NGrid=           0
         NMat0=    1 NMatS0=      1 NMatT0=    0 NMatD0=    1 NMtDS0=    0 NMtDT0=    0
 Petite list used in FoFCou.
 Keep R1 ints in memory in canonical form, NReq=37571964.
 Requested convergence on RMS density matrix=1.00D-08 within 128 cycles.
 Requested convergence on MAX density matrix=1.00D-06.
 Requested convergence on             energy=1.00D-06.
 No special actions if energy rises.
 Defaulting to unpruned grid for atomic number  78.
 SCF Done:  E(RM062X) =  -1152.71335758     A.U. after   12 cycles
            NFock= 12  Conv=0.60D-08     -V/T= 2.0751

 **********************************************************************

            Population analysis using the SCF Density.

 **********************************************************************

 Orbital symmetries:
       Occupied  (A) (A) (A) (A) (A) (A) (A) (A) (A) (A) (A) (A)
                 (A) (A) (A) (A) (A) (A) (A) (A) (A) (A) (A) (A)
                 (A) (A) (A) (A) (A) (A) (A) (A) (A) (A) (A) (A)
       Virtual   (A) (A) (A) (A) (A) (A) (A) (A) (A) (A) (A) (A)
                 (A) (A) (A) (A) (A) (A) (A) (A) (A) (A) (A) (A)
                 (A) (A) (A) (A) (A) (A) (A) (A) (A) (A) (A) (A)
                 (A) (A) (A) (A) (A) (A) (A) (A) (A) (A) (A) (A)
                 (A) (A) (A) (A) (A) (A) (A) (A) (A) (A) (A) (A)
                 (A) (A) (A) (A) (A) (A) (A) (A) (A) (A) (A) (A)
                 (A) (A) (A) (A) (A) (A) (A) (A) (A) (A) (A) (A)
                 (A) (A) (A) (A) (A) (A) (A) (A) (A) (A)
 The electronic state is 1-A.
 Alpha  occ. eigenvalues -- -102.56319-102.56318 -14.85600 -14.85599  -9.72560
 Alpha  occ. eigenvalues --   -9.72559  -7.44608  -7.44607  -7.44188  -7.44187
 Alpha  occ. eigenvalues --   -7.44186  -7.44186  -4.10182  -2.32209  -2.32202
 Alpha  occ. eigenvalues --   -2.28257  -1.08433  -1.07445  -0.83329  -0.82258
 Alpha  occ. eigenvalues --   -0.66811  -0.66208  -0.65014  -0.63857  -0.54915
 Alpha  occ. eigenvalues --   -0.54211  -0.40795  -0.37693  -0.37545  -0.37047
 Alpha  occ. eigenvalues --   -0.36775  -0.31314  -0.29701  -0.29313  -0.29250
 Alpha  occ. eigenvalues --   -0.27975
 Alpha virt. eigenvalues --   -0.04854   0.00192   0.01040   0.03127   0.03862
 Alpha virt. eigenvalues --    0.10147   0.10258   0.11132   0.11800   0.13029
 Alpha virt. eigenvalues --    0.13947   0.13970   0.18496   0.18847   0.20599
 Alpha virt. eigenvalues --    0.21246   0.21795   0.22364   0.28979   0.33915
 Alpha virt. eigenvalues --    0.36070   0.53068   0.54492   0.57223   0.59094
 Alpha virt. eigenvalues --    0.59268   0.62947   0.64117   0.66612   0.68167
 Alpha virt. eigenvalues --    0.70956   0.71379   0.75071   0.78054   0.81009
 Alpha virt. eigenvalues --    0.81188   0.83481   0.83935   0.85500   0.87105
 Alpha virt. eigenvalues --    0.89743   0.94042   0.95023   0.97057   1.02045
 Alpha virt. eigenvalues --    1.02491   1.03333   1.05015   1.05493   1.05754
 Alpha virt. eigenvalues --    1.10067   1.10320   1.10928   1.12386   1.22587
 Alpha virt. eigenvalues --    1.28463   1.31351   1.39903   1.40622   1.43862
 Alpha virt. eigenvalues --    1.54419   1.54473   1.57612   1.67370   1.72847
 Alpha virt. eigenvalues --    2.02976   2.03037   2.19397   2.20069   2.22677
 Alpha virt. eigenvalues --    2.22804   2.24705   2.29351   2.35969   2.38098
 Alpha virt. eigenvalues --    2.39956   2.40227   2.63801   2.73075   2.74160
 Alpha virt. eigenvalues --    2.91658   2.92512   2.93510   2.95433   3.28403
 Alpha virt. eigenvalues --    3.29637   3.35478   3.38748   3.40219   3.41026
 Alpha virt. eigenvalues --   46.10256  46.28896  46.30649 115.12858
          Condensed to atoms (all electrons):
               1          2          3          4          5          6
     1  Pt  17.507974   0.289490   0.289490  -0.005604  -0.016766  -0.016755
     2  Cl   0.289490  17.019004  -0.016052  -0.027820  -0.000146  -0.000136
     3  Cl   0.289490  -0.016052  17.019004  -0.006035   0.000052   0.000052
     4  N   -0.005604  -0.027820  -0.006035   6.843563   0.338055   0.338039
     5  H   -0.016766  -0.000146   0.000052   0.338055   0.378055  -0.025936
     6  H   -0.016755  -0.000136   0.000052   0.338039  -0.025936   0.378190
     7  N   -0.005604  -0.006035  -0.027820  -0.016427  -0.000387  -0.000389
     8  H   -0.016760   0.000052  -0.000141  -0.000386   0.000157   0.000539
     9  H   -0.016762   0.000052  -0.000141  -0.000390   0.000534   0.000158
    10  H   -0.006388   0.015456   0.000084   0.327888  -0.017265  -0.017255
    11  H   -0.006388   0.000084   0.015456   0.000373  -0.000078  -0.000079
               7          8          9         10         11
     1  Pt  -0.005604  -0.016760  -0.016762  -0.006388  -0.006388
     2  Cl  -0.006035   0.000052   0.000052   0.015456   0.000084
     3  Cl  -0.027820  -0.000141  -0.000141   0.000084   0.015456
     4  N   -0.016427  -0.000386  -0.000390   0.327888   0.000373
     5  H   -0.000387   0.000157   0.000534  -0.017265  -0.000078
     6  H   -0.000389   0.000539   0.000158  -0.017255  -0.000079
     7  N    6.843563   0.338046   0.338047   0.000373   0.327887
     8  H    0.338046   0.378134  -0.025936  -0.000079  -0.017261
     9  H    0.338047  -0.025936   0.378111  -0.000079  -0.017259
    10  H    0.000373  -0.000079  -0.000079   0.321384   0.000013
    11  H    0.327887  -0.017261  -0.017259   0.000013   0.321384
 Mulliken charges:
               1
     1  Pt   0.004074
     2  Cl  -0.273949
     3  Cl  -0.273949
     4  N   -0.791255
     5  H    0.343726
     6  H    0.343573
     7  N   -0.791255
     8  H    0.343635
     9  H    0.343664
    10  H    0.375868
    11  H    0.375868
 Sum of Mulliken charges =  -0.00000
 Mulliken charges with hydrogens summed into heavy atoms:
               1
     1  Pt   0.004074
     2  Cl  -0.273949
     3  Cl  -0.273949
     4  N    0.271912
     7  N    0.271912
 Electronic spatial extent (au):  <R**2>=           1071.7094
 Charge=             -0.0000 electrons
 Dipole moment (field-independent basis, Debye):
    X=             -0.0000    Y=             12.5761    Z=              0.0002  Tot=             12.5761
 Quadrupole moment (field-independent basis, Debye-Ang):
   XX=            -61.0499   YY=            -54.6643   ZZ=            -63.1160
   XY=             -0.0000   XZ=              0.0000   YZ=              0.0005
 Traceless Quadrupole moment (field-independent basis, Debye-Ang):
   XX=             -1.4399   YY=              4.9457   ZZ=             -3.5059
   XY=             -0.0000   XZ=              0.0000   YZ=              0.0005
 Octapole moment (field-independent basis, Debye-Ang**2):
  XXX=              0.0000  YYY=             76.1994  ZZZ=              0.0069  XYY=              0.0000
  XXY=             42.6482  XXZ=             -0.0036  XZZ=             -0.0000  YZZ=             20.3718
  YYZ=             -0.0014  XYZ=             -0.0033
 Hexadecapole moment (field-independent basis, Debye-Ang**3):
 XXXX=           -642.9897 YYYY=           -567.2262 ZZZZ=            -86.7105 XXXY=             -0.0000
 XXXZ=              0.0191 YYYX=              0.0000 YYYZ=             -0.0130 ZZZX=             -0.0117
 ZZZY=              0.0129 XXYY=           -199.7786 XXZZ=           -126.3501 YYZZ=           -103.4300
 XXYZ=              0.0047 YYXZ=             -0.0080 ZZXY=             -0.0000
 N-N= 4.202292053028D+02 E-N=-3.543683584771D+03  KE= 1.072237371573D+03
 Merz-Kollman atomic radii used.
 Read replacement radii for each type of atom:
 Rad(78) =   7.400000000000D-01
 Atom Element Radius
    1    78    0.74
    2    17    1.70
    3    17    1.70
    4     7    1.50
    5     1    1.20
    6     1    1.20
    7     7    1.50
    8     1    1.20
    9     1    1.20
   10     1    1.20
   11     1    1.20

 **********************************************************************

            Electrostatic Properties Using The SCF Density.

 **********************************************************************

       Atomic Center    1 is at   0.000000  0.191347  0.000000
       Atomic Center    2 is at  -1.612203 -1.420856  0.000000
       Atomic Center    3 is at   1.612203 -1.420856  0.000000
       Atomic Center    4 is at  -1.407143  1.598490  0.000000
       Atomic Center    5 is at  -1.310632  2.166405  0.817409
       Atomic Center    6 is at  -1.308393  2.168644 -0.815581
       Atomic Center    7 is at   1.407142  1.598490  0.000000
       Atomic Center    8 is at   1.309547  2.167490 -0.816525
       Atomic Center    9 is at   1.309476  2.167561  0.816468
       Atomic Center   10 is at  -2.309510  1.167527 -0.001828
       Atomic Center   11 is at   2.309511  1.167526  0.000058
     831 points will be used for fitting atomic charges
 Fitting point charges to electrostatic potential
 Charges from ESP fit, RMS=   0.01240 RRMS=   0.23969:
 ESP charges:
               1
     1  Pt   1.725013
     2  Cl  -0.597479
     3  Cl  -0.609941
     4  N   -3.686165
     5  H    1.130023
     6  H    1.130501
     7  N   -3.238012
     8  H    1.014064
     9  H    1.014481
    10  H    1.125407
    11  H    0.992108
 Sum of ESP charges =   0.00000
 ESP charges with hydrogens summed into heavy atoms:
               1
     1  Pt   1.725013
     2  Cl  -0.597479
     3  Cl  -0.609941
     4  N   -0.300235
     7  N   -0.217359
 Charge=   0.00000 Dipole=    -0.0053    13.1912    -0.0002 Tot=    13.1912
 -----------------------------------------------------------------

              Electrostatic Properties (Atomic Units)

 -----------------------------------------------------------------
    Center     Electric         -------- Electric Field --------
               Potential          X             Y             Z
 -----------------------------------------------------------------
    1 Atom    -14.635106
    2 Atom    -64.507138
    3 Atom    -64.507138
    4 Atom    -18.258134
    5 Atom     -0.956578
    6 Atom     -0.956560
    7 Atom    -18.258134
    8 Atom     -0.956567
    9 Atom     -0.956570
   10 Atom     -0.963888
   11 Atom     -0.963889
 -----------------------------------------------------------------
   1 Symmetry operations used in ECPInt.
 ECPInt:  NShTT=    1275 NPrTT=    5909 LenC2=    1256 LenP2D=    4519.
 LDataN:  DoStor=T MaxTD1= 8 Len=  415
 Calling FoFJK, ICntrl=      2127 FMM=F ISym2X=0 I1Cent= 0 IOpClX= 0 NMat=1 NMatS=1 NMatT=0.
 Defaulting to unpruned grid for atomic number  78.
 ***** Axes restored to original set *****
 -------------------------------------------------------------------
 Center     Atomic                   Forces (Hartrees/Bohr)
 Number     Number              X              Y              Z
 -------------------------------------------------------------------
      1       78          -0.032748781   -0.032748793    0.000004129
      2       17          -0.013302520    0.007251267   -0.000002870
      3       17           0.007251264   -0.013302518    0.000000492
      4        7           0.006621458    0.012990279   -0.000003735
      5        1           0.004317838    0.011816257    0.013028987
      6        1           0.004366156    0.011833281   -0.012998722
      7        7           0.012990295    0.006621436    0.000000959
      8        1           0.011825719    0.004339863   -0.013014551
      9        1           0.011823817    0.004344198    0.013013214
     10        1          -0.019708565    0.006563339   -0.000027571
     11        1           0.006563319   -0.019708609   -0.000000332
 -------------------------------------------------------------------
 Cartesian Forces:  Max     0.032748793 RMS     0.012558221

 GradGradGradGradGradGradGradGradGradGradGradGradGradGradGradGradGradGrad
 Berny optimization.
 FormGI is forming the generalized inverse of G from B-inverse, IUseBI=4.
 Internal  Forces:  Max     0.043203157 RMS     0.013421999
 Search for a local minimum.
 Step number   1 out of a maximum of   52
 All quantities printed in internal units (Hartrees-Bohrs-Radians)
 Mixed Optimization -- RFO/linear search
 Second derivative matrix not updated -- first step.
 ITU=  0
     Eigenvalues ---    0.00230   0.00230   0.00230   0.00230   0.07239
     Eigenvalues ---    0.07239   0.07239   0.07239   0.12615   0.12615
     Eigenvalues ---    0.16000   0.16000   0.16000   0.16000   0.16000
     Eigenvalues ---    0.16000   0.20378   0.20378   0.22001   0.22001
     Eigenvalues ---    0.25000   0.47688   0.47688   0.47688   0.47688
     Eigenvalues ---    0.47688   0.47688
 RFO step:  Lambda=-2.81301682D-02 EMin= 2.30000000D-03
 Linear search not attempted -- first point.
 Maximum step size (   0.300) exceeded in Quadratic search.
    -- Step size scaled by   0.899
 Iteration  1 RMS(Cart)=  0.11560386 RMS(Int)=  0.00196983
 Iteration  2 RMS(Cart)=  0.00307673 RMS(Int)=  0.00060842
 Iteration  3 RMS(Cart)=  0.00000434 RMS(Int)=  0.00060841
 Iteration  4 RMS(Cart)=  0.00000001 RMS(Int)=  0.00060841
 Variable       Old X    -DE/DX   Delta X   Delta X   Delta X     New X
                                 (Linear)    (Quad)   (Total)
    R1        4.30858   0.01330   0.00000   0.04818   0.04818   4.35676
    R2        4.30858   0.01330   0.00000   0.04818   0.04818   4.35676
    R3        3.76055   0.04320   0.00000   0.16744   0.16744   3.92800
    R4        3.76055   0.04320   0.00000   0.16744   0.16744   3.92800
    R5        1.88973   0.01662   0.00000   0.02958   0.02958   1.91930
    R6        1.88973   0.01661   0.00000   0.02956   0.02956   1.91929
    R7        1.88973   0.02077   0.00000   0.03696   0.03696   1.92669
    R8        1.88973   0.01661   0.00000   0.02957   0.02957   1.91930
    R9        1.88973   0.01661   0.00000   0.02957   0.02957   1.91930
   R10        1.88973   0.02077   0.00000   0.03696   0.03696   1.92669
    A1        1.57080   0.01562   0.00000   0.04942   0.04942   1.62022
    A2        1.57080  -0.01603   0.00000  -0.05180  -0.05180   1.51899
    A3        1.57080  -0.01603   0.00000  -0.05180  -0.05180   1.51899
    A4        1.57080   0.01644   0.00000   0.05418   0.05418   1.62498
    A5        1.91063   0.00845   0.00000   0.04386   0.04300   1.95363
    A6        1.91063   0.00849   0.00000   0.04407   0.04321   1.95384
    A7        1.91063  -0.00470   0.00000  -0.02945  -0.02911   1.88152
    A8        1.91063  -0.00428   0.00000  -0.00647  -0.00827   1.90236
    A9        1.91063  -0.00398   0.00000  -0.02604  -0.02571   1.88492
   A10        1.91063  -0.00398   0.00000  -0.02597  -0.02564   1.88499
   A11        1.91063   0.00847   0.00000   0.04397   0.04311   1.95374
   A12        1.91063   0.00847   0.00000   0.04396   0.04310   1.95373
   A13        1.91063  -0.00470   0.00000  -0.02945  -0.02911   1.88152
   A14        1.91063  -0.00428   0.00000  -0.00647  -0.00827   1.90236
   A15        1.91063  -0.00398   0.00000  -0.02601  -0.02569   1.88495
   A16        1.91063  -0.00398   0.00000  -0.02600  -0.02567   1.88497
   A17        3.14159   0.00041   0.00000   0.00238   0.00238   3.14397
   A18        3.14159   0.00041   0.00000   0.00238   0.00238   3.14397
   A19        3.14159   0.00000   0.00000   0.00008   0.00008   3.14167
   A20        3.14159   0.00000   0.00000   0.00005   0.00005   3.14164
    D1        2.09246  -0.00257   0.00000  -0.02291  -0.02373   2.06873
    D2       -2.09633   0.00257   0.00000   0.02302   0.02384  -2.07249
    D3       -0.00194   0.00001   0.00000   0.00016   0.00016  -0.00178
    D4       -1.04914  -0.00257   0.00000  -0.02298  -0.02381  -1.07294
    D5        1.04526   0.00256   0.00000   0.02294   0.02376   1.06902
    D6        3.13965   0.00001   0.00000   0.00008   0.00008   3.13974
    D7        2.09433  -0.00257   0.00000  -0.02295  -0.02378   2.07056
    D8       -2.09446   0.00257   0.00000   0.02297   0.02379  -2.07066
    D9       -0.00006   0.00000   0.00000   0.00002   0.00002  -0.00004
   D10       -1.04726  -0.00257   0.00000  -0.02300  -0.02382  -1.07108
   D11        1.04714   0.00257   0.00000   0.02292   0.02375   1.07088
   D12        3.14153  -0.00000   0.00000  -0.00003  -0.00003   3.14150
         Item               Value     Threshold  Converged?
 Maximum Force            0.043203     0.000450     NO 
 RMS     Force            0.013422     0.000300     NO 
 Maximum Displacement     0.254008     0.001800     NO 
 RMS     Displacement     0.117534     0.001200     NO 
 Predicted change in Energy=-1.526839D-02
 GradGradGradGradGradGradGradGradGradGradGradGradGradGradGradGradGradGrad

                          Input orientation:                          
 ---------------------------------------------------------------------
 Center     Atomic      Atomic             Coordinates (Angstroms)
 Number     Number       Type             X           Y           Z
 ---------------------------------------------------------------------
      1         78           0       -0.195427   -0.177067    0.000008
      2         17           0       -2.500221   -0.120102   -0.000135
      3         17           0       -0.138461   -2.481862    0.000104
      4          7           0       -0.251732    1.900776    0.000018
      5          1           0        0.187742    2.292216    0.827776
      6          1           0        0.190912    2.292510   -0.825903
      7          7           0        1.882416   -0.233372   -0.000021
      8          1           0        2.273993    0.207609   -0.826909
      9          1           0        2.274013    0.207767    0.826773
     10          1           0       -1.230554    2.186097   -0.001770
     11          1           0        2.167737   -1.212196    0.000058
 ---------------------------------------------------------------------
                    Distance matrix (angstroms):
                    1          2          3          4          5
     1  Pt   0.000000
     2  Cl   2.305498   0.000000
     3  Cl   2.305498   3.340033   0.000000
     4  N    2.078606   3.023185   4.384101   0.000000
     5  H    2.632371   3.705383   4.856260   1.015651   0.000000
     6  H    2.632527   3.707396   4.856480   1.015645   1.653681
     7  N    2.078606   4.384101   3.023185   3.018141   3.152104
     8  H    2.632452   4.856344   3.706364   3.151176   3.381717
     9  H    2.632446   4.856396   3.706415   3.151062   2.949144
    10  H    2.579929   2.632605   4.794007   1.019561   1.646503
    11  H    2.579929   4.794007   2.632603   3.942642   4.109306
                    6          7          8          9         10
     6  H    0.000000
     7  N    3.150135   0.000000
     8  H    2.947209   1.015648   0.000000
     9  H    3.378876   1.015648   1.653681   0.000000
    10  H    1.646537   3.942641   4.108177   4.108803   0.000000
    11  H    4.107677   1.019561   1.646515   1.646526   4.805911
                   11
    11  H    0.000000
 Stoichiometry    Cl2H6N2Pt
 Framework group  C1[X(Cl2H6N2Pt)]
 Deg. of freedom    27
 Full point group                 C1      NOp   1
 Largest Abelian subgroup         C1      NOp   1
 Largest concise Abelian subgroup C1      NOp   1
                         Standard orientation:                         
 ---------------------------------------------------------------------
 Center     Atomic      Atomic             Coordinates (Angstroms)
 Number     Number       Type             X           Y           Z
 ---------------------------------------------------------------------
      1         78           0        0.000000    0.182411    0.000007
      2         17           0       -1.670016   -1.407044   -0.000136
      3         17           0        1.670017   -1.407043    0.000103
      4          7           0       -1.509070    1.611854    0.000017
      5          1           0       -1.475105    2.199400    0.827775
      6          1           0       -1.473072    2.201849   -0.825904
      7          7           0        1.509070    1.611855   -0.000022
      8          1           0        1.474137    2.200562   -0.826909
      9          1           0        1.474039    2.200688    0.826772
     10          1           0       -2.402955    1.121475   -0.001770
     11          1           0        2.402956    1.121474    0.000058
 ---------------------------------------------------------------------
 Rotational constants (GHZ):           2.0850740           1.7922136           0.9740308
 Basis read from rwf:  (5D, 7F)
 Pseudo-potential data read from rwf file.
 There are   137 symmetry adapted cartesian basis functions of A   symmetry.
 There are   130 symmetry adapted basis functions of A   symmetry.
   130 basis functions,   267 primitive gaussians,   137 cartesian basis functions
    36 alpha electrons       36 beta electrons
       nuclear repulsion energy       410.6144441523 Hartrees.
 NAtoms=   11 NActive=   11 NUniq=   11 SFac= 1.00D+00 NAtFMM=   60 NAOKFM=F Big=F
 Integral buffers will be    131072 words long.
 Raffenetti 2 integral format.
 Two-electron integral symmetry is turned on.
 Nuclear repulsion after empirical dispersion term =      410.6141966367 Hartrees.
 One-electron integrals computed using PRISM.
   1 Symmetry operations used in ECPInt.
 ECPInt:  NShTT=    1275 NPrTT=    5909 LenC2=    1256 LenP2D=    4484.
 LDataN:  DoStor=T MaxTD1= 7 Len=  274
 NBasis=   130 RedAO= T EigKep=  7.32D-03  NBF=   130
 NBsUse=   130 1.00D-06 EigRej= -1.00D+00 NBFU=   130
 Defaulting to unpruned grid for atomic number  78.
 Initial guess from the checkpoint file:  "cisplatin_opt_freq_m06.chk"
 B after Tr=    -0.000000   -0.000000   -0.000000
         Rot=    1.000000   -0.000003    0.000020   -0.000000 Ang=  -0.00 deg.
 ExpMin= 1.50D-02 ExpMax= 2.52D+04 ExpMxC= 3.78D+03 IAcc=3 IRadAn=         5 AccDes= 0.00D+00
 Harris functional with IExCor= 1009 and IRadAn=       5 diagonalized for initial guess.
 HarFok:  IExCor= 1009 AccDes= 0.00D+00 IRadAn=         5 IDoV= 1 UseB2=F ITyADJ=14
 ICtDFT=  3500011 ScaDFX=  1.000000  1.000000  1.000000  1.000000
 Defaulting to unpruned grid for atomic number  78.
 FoFCou: FMM=F IPFlag=           0 FMFlag=      100000 FMFlg1=           0
         NFxFlg=           0 DoJE=T BraDBF=F KetDBF=T FulRan=T
         wScrn=  0.000000 ICntrl=       500 IOpCl=  0 I1Cent=   200000004 NGrid=           0
         NMat0=    1 NMatS0=      1 NMatT0=    0 NMatD0=    1 NMtDS0=    0 NMtDT0=    0
 Petite list used in FoFCou.
 Keep R1 ints in memory in canonical form, NReq=37571964.
 Requested convergence on RMS density matrix=1.00D-08 within 128 cycles.
 Requested convergence on MAX density matrix=1.00D-06.
 Requested convergence on             energy=1.00D-06.
 No special actions if energy rises.
 Defaulting to unpruned grid for atomic number  78.
 SCF Done:  E(RM062X) =  -1152.72894107     A.U. after   13 cycles
            NFock= 13  Conv=0.28D-08     -V/T= 2.0754
   1 Symmetry operations used in ECPInt.
 ECPInt:  NShTT=    1275 NPrTT=    5909 LenC2=    1256 LenP2D=    4484.
 LDataN:  DoStor=T MaxTD1= 8 Len=  415
 Calling FoFJK, ICntrl=      2127 FMM=F ISym2X=0 I1Cent= 0 IOpClX= 0 NMat=1 NMatS=1 NMatT=0.
 Defaulting to unpruned grid for atomic number  78.
 ***** Axes restored to original set *****
 -------------------------------------------------------------------
 Center     Atomic                   Forces (Hartrees/Bohr)
 Number     Number              X              Y              Z
 -------------------------------------------------------------------
      1       78          -0.008505517   -0.008505520   -0.000001301
      2       17          -0.002976568    0.003501422   -0.000000124
      3       17           0.003501424   -0.002976565   -0.000000635
      4        7           0.002138113    0.006415279   -0.000005978
      5        1          -0.000266655    0.002755330    0.000951437
      6        1          -0.000262439    0.002764429   -0.000946632
      7        7           0.006415279    0.002138120    0.000002735
      8        1           0.002759179   -0.000264564   -0.000949427
      9        1           0.002760595   -0.000264542    0.000948655
     10        1          -0.003620415   -0.001942980    0.000000558
     11        1          -0.001942997   -0.003620408    0.000000713
 -------------------------------------------------------------------
 Cartesian Forces:  Max     0.008505520 RMS     0.003240361

 GradGradGradGradGradGradGradGradGradGradGradGradGradGradGradGradGradGrad
 Berny optimization.
 Using GEDIIS/GDIIS optimizer.
 FormGI is forming the generalized inverse of G from B-inverse, IUseBI=4.
 Internal  Forces:  Max     0.010042875 RMS     0.003896515
 Search for a local minimum.
 Step number   2 out of a maximum of   52
 All quantities printed in internal units (Hartrees-Bohrs-Radians)
 Mixed Optimization -- RFO/linear search
 Update second derivatives using D2CorX and points    1    2
 DE= -1.56D-02 DEPred=-1.53D-02 R= 1.02D+00
 TightC=F SS=  1.41D+00  RLast= 3.07D-01 DXNew= 5.0454D-01 9.2042D-01
 Trust test= 1.02D+00 RLast= 3.07D-01 DXMaxT set to 5.05D-01
 ITU=  1  0
 Use linear search instead of GDIIS.
     Eigenvalues ---    0.00230   0.00230   0.00230   0.00230   0.06670
     Eigenvalues ---    0.06712   0.07294   0.07294   0.12595   0.12615
     Eigenvalues ---    0.14754   0.16000   0.16000   0.16000   0.16000
     Eigenvalues ---    0.16178   0.20208   0.20378   0.21906   0.22001
     Eigenvalues ---    0.24417   0.47671   0.47688   0.47688   0.47688
     Eigenvalues ---    0.47688   0.49114
 RFO step:  Lambda=-1.74181063D-03 EMin= 2.29999997D-03
 Quartic linear search produced a step of  0.49678.
 Iteration  1 RMS(Cart)=  0.09414254 RMS(Int)=  0.00256273
 Iteration  2 RMS(Cart)=  0.00257534 RMS(Int)=  0.00091671
 Iteration  3 RMS(Cart)=  0.00000305 RMS(Int)=  0.00091671
 Iteration  4 RMS(Cart)=  0.00000001 RMS(Int)=  0.00091671
 Variable       Old X    -DE/DX   Delta X   Delta X   Delta X     New X
                                 (Linear)    (Quad)   (Total)
    R1        4.35676   0.00306   0.02394  -0.00169   0.02225   4.37901
    R2        4.35676   0.00306   0.02394  -0.00169   0.02225   4.37901
    R3        3.92800   0.01004   0.08318  -0.00405   0.07913   4.00713
    R4        3.92800   0.01004   0.08318  -0.00405   0.07913   4.00713
    R5        1.91930   0.00172   0.01469  -0.00895   0.00574   1.92504
    R6        1.91929   0.00172   0.01469  -0.00895   0.00574   1.92503
    R7        1.92669   0.00293   0.01836  -0.00875   0.00961   1.93630
    R8        1.91930   0.00172   0.01469  -0.00895   0.00574   1.92503
    R9        1.91930   0.00172   0.01469  -0.00895   0.00574   1.92503
   R10        1.92669   0.00293   0.01836  -0.00875   0.00961   1.93630
    A1        1.62022   0.00746   0.02455   0.01763   0.04218   1.66240
    A2        1.51899  -0.00808  -0.02573  -0.02374  -0.04947   1.46952
    A3        1.51899  -0.00808  -0.02573  -0.02374  -0.04947   1.46952
    A4        1.62498   0.00869   0.02692   0.02985   0.05677   1.68174
    A5        1.95363   0.00340   0.02136   0.01765   0.03764   1.99127
    A6        1.95384   0.00341   0.02147   0.01778   0.03788   1.99173
    A7        1.88152  -0.00543  -0.01446  -0.04785  -0.06164   1.81989
    A8        1.90236  -0.00185  -0.00411   0.00664  -0.00009   1.90227
    A9        1.88492   0.00011  -0.01277   0.00205  -0.01008   1.87484
   A10        1.88499   0.00012  -0.01274   0.00214  -0.00994   1.87505
   A11        1.95374   0.00340   0.02141   0.01770   0.03775   1.99149
   A12        1.95373   0.00341   0.02141   0.01773   0.03777   1.99151
   A13        1.88152  -0.00543  -0.01446  -0.04785  -0.06164   1.81988
   A14        1.90236  -0.00185  -0.00411   0.00664  -0.00009   1.90227
   A15        1.88495   0.00012  -0.01276   0.00210  -0.01001   1.87494
   A16        1.88497   0.00011  -0.01275   0.00209  -0.01001   1.87495
   A17        3.14397   0.00061   0.00118   0.00611   0.00729   3.15127
   A18        3.14397   0.00061   0.00118   0.00611   0.00729   3.15127
   A19        3.14167  -0.00000   0.00004  -0.00058  -0.00054   3.14112
   A20        3.14164  -0.00000   0.00002  -0.00029  -0.00027   3.14137
    D1        2.06873  -0.00131  -0.01179  -0.01717  -0.03016   2.03857
    D2       -2.07249   0.00130   0.01184   0.01764   0.03068  -2.04181
    D3       -0.00178   0.00000   0.00008   0.00032   0.00040  -0.00138
    D4       -1.07294  -0.00131  -0.01183  -0.01659  -0.02961  -1.10256
    D5        1.06902   0.00131   0.01181   0.01822   0.03122   1.10025
    D6        3.13974   0.00001   0.00004   0.00091   0.00094   3.14068
    D7        2.07056  -0.00131  -0.01181  -0.01765  -0.03066   2.03990
    D8       -2.07066   0.00131   0.01182   0.01716   0.03018  -2.04048
    D9       -0.00004  -0.00000   0.00001  -0.00024  -0.00023  -0.00028
   D10       -1.07108  -0.00131  -0.01183  -0.01736  -0.03039  -1.10147
   D11        1.07088   0.00131   0.01180   0.01745   0.03044   1.10133
   D12        3.14150   0.00000  -0.00001   0.00005   0.00003   3.14153
         Item               Value     Threshold  Converged?
 Maximum Force            0.010043     0.000450     NO 
 RMS     Force            0.003897     0.000300     NO 
 Maximum Displacement     0.190801     0.001800     NO 
 RMS     Displacement     0.094835     0.001200     NO 
 Predicted change in Energy=-1.840973D-03
 GradGradGradGradGradGradGradGradGradGradGradGradGradGradGradGradGradGrad

                          Input orientation:                          
 ---------------------------------------------------------------------
 Center     Atomic      Atomic             Coordinates (Angstroms)
 Number     Number       Type             X           Y           Z
 ---------------------------------------------------------------------
      1         78           0       -0.181119   -0.162759   -0.000192
      2         17           0       -2.495959   -0.056663    0.000437
      3         17           0       -0.075023   -2.477599   -0.000684
      4          7           0       -0.298690    1.954459   -0.000208
      5          1           0        0.097153    2.392906    0.829730
      6          1           0        0.099274    2.393437   -0.828842
      7          7           0        1.936099   -0.280330    0.000218
      8          1           0        2.374960    0.116518   -0.829016
      9          1           0        2.374663    0.116629    0.829557
     10          1           0       -1.304191    2.151609   -0.001310
     11          1           0        2.133248   -1.285832    0.000311
 ---------------------------------------------------------------------
                    Distance matrix (angstroms):
                    1          2          3          4          5
     1  Pt   0.000000
     2  Cl   2.317270   0.000000
     3  Cl   2.317270   3.423720   0.000000
     4  N    2.120480   2.978692   4.437698   0.000000
     5  H    2.701412   3.662287   4.943789   1.018688   0.000000
     6  H    2.701743   3.664141   4.944008   1.018681   1.658573
     7  N    2.120480   4.437698   2.978691   3.160470   3.349030
     8  H    2.701571   4.944071   3.663058   3.348635   3.622401
     9  H    2.701585   4.943726   3.663370   3.348574   3.220013
    10  H    2.572468   2.509338   4.789616   1.024647   1.647003
    11  H    2.572467   4.789615   2.509337   4.051397   4.285643
                    6          7          8          9         10
     6  H    0.000000
     7  N    3.348179   0.000000
     8  H    3.219178   1.018685   0.000000
     9  H    3.620985   1.018684   1.658573   0.000000
    10  H    1.647120   4.051397   4.285190   4.285493   0.000000
    11  H    4.285040   1.024647   1.647057   1.647067   4.861275
                   11
    11  H    0.000000
 Stoichiometry    Cl2H6N2Pt
 Framework group  C1[X(Cl2H6N2Pt)]
 Deg. of freedom    27
 Full point group                 C1      NOp   1
 Largest Abelian subgroup         C1      NOp   1
 Largest concise Abelian subgroup C1      NOp   1
                         Standard orientation:                         
 ---------------------------------------------------------------------
 Center     Atomic      Atomic             Coordinates (Angstroms)
 Number     Number       Type             X           Y           Z
 ---------------------------------------------------------------------
      1         78           0       -0.000000    0.178805   -0.000051
      2         17           0       -1.711860   -1.383014    0.000579
      3         17           0        1.711860   -1.383013   -0.000543
      4          7           0       -1.580235    1.592768   -0.000067
      5          1           0       -1.610360    2.182700    0.829871
      6          1           0       -1.609236    2.184576   -0.828701
      7          7           0        1.580235    1.592768    0.000360
      8          1           0        1.609942    2.183704   -0.828875
      9          1           0        1.609653    2.183573    0.829699
     10          1           0       -2.430638    1.021177   -0.001169
     11          1           0        2.430637    1.021177    0.000453
 ---------------------------------------------------------------------
 Rotational constants (GHZ):           2.1504217           1.6845234           0.9544779
 Basis read from rwf:  (5D, 7F)
 Pseudo-potential data read from rwf file.
 There are   137 symmetry adapted cartesian basis functions of A   symmetry.
 There are   130 symmetry adapted basis functions of A   symmetry.
   130 basis functions,   267 primitive gaussians,   137 cartesian basis functions
    36 alpha electrons       36 beta electrons
       nuclear repulsion energy       406.8933496631 Hartrees.
 NAtoms=   11 NActive=   11 NUniq=   11 SFac= 1.00D+00 NAtFMM=   60 NAOKFM=F Big=F
 Integral buffers will be    131072 words long.
 Raffenetti 2 integral format.
 Two-electron integral symmetry is turned on.
 Nuclear repulsion after empirical dispersion term =      406.8930946811 Hartrees.
 One-electron integrals computed using PRISM.
   1 Symmetry operations used in ECPInt.
 ECPInt:  NShTT=    1275 NPrTT=    5909 LenC2=    1252 LenP2D=    4460.
 LDataN:  DoStor=T MaxTD1= 7 Len=  274
 NBasis=   130 RedAO= T EigKep=  7.83D-03  NBF=   130
 NBsUse=   130 1.00D-06 EigRej= -1.00D+00 NBFU=   130
 Defaulting to unpruned grid for atomic number  78.
 Initial guess from the checkpoint file:  "cisplatin_opt_freq_m06.chk"
 B after Tr=     0.000000    0.000000   -0.000000
         Rot=    1.000000   -0.000009   -0.000104   -0.000000 Ang=  -0.01 deg.
 ExpMin= 1.50D-02 ExpMax= 2.52D+04 ExpMxC= 3.78D+03 IAcc=3 IRadAn=         5 AccDes= 0.00D+00
 Harris functional with IExCor= 1009 and IRadAn=       5 diagonalized for initial guess.
 HarFok:  IExCor= 1009 AccDes= 0.00D+00 IRadAn=         5 IDoV= 1 UseB2=F ITyADJ=14
 ICtDFT=  3500011 ScaDFX=  1.000000  1.000000  1.000000  1.000000
 Defaulting to unpruned grid for atomic number  78.
 FoFCou: FMM=F IPFlag=           0 FMFlag=      100000 FMFlg1=           0
         NFxFlg=           0 DoJE=T BraDBF=F KetDBF=T FulRan=T
         wScrn=  0.000000 ICntrl=       500 IOpCl=  0 I1Cent=   200000004 NGrid=           0
         NMat0=    1 NMatS0=      1 NMatT0=    0 NMatD0=    1 NMtDS0=    0 NMtDT0=    0
 Petite list used in FoFCou.
 Keep R1 ints in memory in canonical form, NReq=37571964.
 Requested convergence on RMS density matrix=1.00D-08 within 128 cycles.
 Requested convergence on MAX density matrix=1.00D-06.
 Requested convergence on             energy=1.00D-06.
 No special actions if energy rises.
 Defaulting to unpruned grid for atomic number  78.
 SCF Done:  E(RM062X) =  -1152.73160325     A.U. after   12 cycles
            NFock= 12  Conv=0.52D-08     -V/T= 2.0755
   1 Symmetry operations used in ECPInt.
 ECPInt:  NShTT=    1275 NPrTT=    5909 LenC2=    1252 LenP2D=    4460.
 LDataN:  DoStor=T MaxTD1= 8 Len=  415
 Calling FoFJK, ICntrl=      2127 FMM=F ISym2X=0 I1Cent= 0 IOpClX= 0 NMat=1 NMatS=1 NMatT=0.
 Defaulting to unpruned grid for atomic number  78.
 ***** Axes restored to original set *****
 -------------------------------------------------------------------
 Center     Atomic                   Forces (Hartrees/Bohr)
 Number     Number              X              Y              Z
 -------------------------------------------------------------------
      1       78           0.000761967    0.000761967    0.000015310
      2       17          -0.000125376    0.000123859   -0.000015256
      3       17           0.000123846   -0.000125377    0.000007257
      4        7          -0.000673927    0.002364759    0.000016316
      5        1           0.000209485   -0.000399573   -0.001391946
      6        1           0.000201483   -0.000404853    0.001389553
      7        7           0.002364767   -0.000673900   -0.000016931
      8        1          -0.000398870    0.000204467    0.001390891
      9        1          -0.000405562    0.000206498   -0.001390645
     10        1           0.000184913   -0.002242746   -0.000002596
     11        1          -0.002242726    0.000184898   -0.000001953
 -------------------------------------------------------------------
 Cartesian Forces:  Max     0.002364767 RMS     0.000984700

 GradGradGradGradGradGradGradGradGradGradGradGradGradGradGradGradGradGrad
 Berny optimization.
 Using GEDIIS/GDIIS optimizer.
 FormGI is forming the generalized inverse of G from B-inverse, IUseBI=4.
 Internal  Forces:  Max     0.002844219 RMS     0.000961157
 Search for a local minimum.
 Step number   3 out of a maximum of   52
 All quantities printed in internal units (Hartrees-Bohrs-Radians)
 Mixed Optimization -- En-DIIS/RFO-DIIS
 Update second derivatives using D2CorX and points    1    2    3
 DE= -2.66D-03 DEPred=-1.84D-03 R= 1.45D+00
 TightC=F SS=  1.41D+00  RLast= 2.12D-01 DXNew= 8.4853D-01 6.3598D-01
 Trust test= 1.45D+00 RLast= 2.12D-01 DXMaxT set to 6.36D-01
 ITU=  1  1  0
 Use linear search instead of GDIIS.
     Eigenvalues ---    0.00230   0.00230   0.00230   0.00230   0.05800
     Eigenvalues ---    0.06209   0.07565   0.07565   0.11089   0.12615
     Eigenvalues ---    0.12977   0.16000   0.16000   0.16000   0.16000
     Eigenvalues ---    0.16236   0.20378   0.20443   0.21852   0.22001
     Eigenvalues ---    0.24442   0.47646   0.47688   0.47688   0.47688
     Eigenvalues ---    0.47688   0.50330
 RFO step:  Lambda=-1.91897630D-04 EMin= 2.29998012D-03
 Quartic linear search produced a step of  0.10747.
 Iteration  1 RMS(Cart)=  0.01978302 RMS(Int)=  0.00021726
 Iteration  2 RMS(Cart)=  0.00021065 RMS(Int)=  0.00007600
 Iteration  3 RMS(Cart)=  0.00000001 RMS(Int)=  0.00007600
 Variable       Old X    -DE/DX   Delta X   Delta X   Delta X     New X
                                 (Linear)    (Quad)   (Total)
    R1        4.37901   0.00013   0.00239   0.00046   0.00285   4.38186
    R2        4.37901   0.00013   0.00239   0.00046   0.00285   4.38186
    R3        4.00713  -0.00068   0.00850  -0.00426   0.00425   4.01137
    R4        4.00713  -0.00068   0.00850  -0.00426   0.00425   4.01137
    R5        1.92504  -0.00122   0.00062  -0.00244  -0.00183   1.92321
    R6        1.92503  -0.00123   0.00062  -0.00245  -0.00183   1.92320
    R7        1.93630  -0.00061   0.00103  -0.00115  -0.00012   1.93619
    R8        1.92503  -0.00122   0.00062  -0.00244  -0.00183   1.92321
    R9        1.92503  -0.00123   0.00062  -0.00245  -0.00183   1.92320
   R10        1.93630  -0.00061   0.00103  -0.00115  -0.00012   1.93619
    A1        1.66240   0.00026   0.00453  -0.00400   0.00056   1.66296
    A2        1.46952  -0.00106  -0.00532  -0.00242  -0.00773   1.46180
    A3        1.46952  -0.00106  -0.00532  -0.00242  -0.00773   1.46180
    A4        1.68174   0.00186   0.00610   0.00885   0.01495   1.69669
    A5        1.99127   0.00042   0.00404   0.00163   0.00557   1.99683
    A6        1.99173   0.00041   0.00407   0.00155   0.00551   1.99724
    A7        1.81989  -0.00284  -0.00662  -0.01602  -0.02257   1.79731
    A8        1.90227  -0.00050  -0.00001  -0.00315  -0.00337   1.89890
    A9        1.87484   0.00129  -0.00108   0.00838   0.00736   1.88220
   A10        1.87505   0.00129  -0.00107   0.00832   0.00732   1.88237
   A11        1.99149   0.00042   0.00406   0.00163   0.00558   1.99707
   A12        1.99151   0.00041   0.00406   0.00155   0.00550   1.99700
   A13        1.81988  -0.00284  -0.00662  -0.01601  -0.02257   1.79731
   A14        1.90227  -0.00050  -0.00001  -0.00315  -0.00337   1.89890
   A15        1.87494   0.00129  -0.00108   0.00834   0.00733   1.88226
   A16        1.87495   0.00129  -0.00108   0.00836   0.00735   1.88230
   A17        3.15127   0.00080   0.00078   0.00642   0.00722   3.15849
   A18        3.15127   0.00080   0.00078   0.00642   0.00722   3.15849
   A19        3.14112   0.00003  -0.00006   0.01123   0.01117   3.15229
   A20        3.14137   0.00001  -0.00003   0.00552   0.00549   3.14686
    D1        2.03857  -0.00000  -0.00324   0.00687   0.00353   2.04210
    D2       -2.04181   0.00003   0.00330   0.00524   0.00864  -2.03317
    D3       -0.00138   0.00001   0.00004   0.00600   0.00604   0.00466
    D4       -1.10256  -0.00003  -0.00318  -0.00436  -0.00764  -1.11020
    D5        1.10025   0.00001   0.00336  -0.00598  -0.00253   1.09772
    D6        3.14068  -0.00001   0.00010  -0.00523  -0.00513   3.13555
    D7        2.03990  -0.00001  -0.00329   0.00357   0.00018   2.04008
    D8       -2.04048   0.00002   0.00324   0.00195   0.00529  -2.03519
    D9       -0.00028   0.00001  -0.00003   0.00275   0.00273   0.00245
   D10       -1.10147  -0.00002  -0.00327  -0.00194  -0.00531  -1.10679
   D11        1.10133   0.00001   0.00327  -0.00357  -0.00020   1.10113
   D12        3.14153  -0.00001   0.00000  -0.00276  -0.00276   3.13877
         Item               Value     Threshold  Converged?
 Maximum Force            0.002844     0.000450     NO 
 RMS     Force            0.000961     0.000300     NO 
 Maximum Displacement     0.038585     0.001800     NO 
 RMS     Displacement     0.019769     0.001200     NO 
 Predicted change in Energy=-1.184998D-04
 GradGradGradGradGradGradGradGradGradGradGradGradGradGradGradGradGradGrad

                          Input orientation:                          
 ---------------------------------------------------------------------
 Center     Atomic      Atomic             Coordinates (Angstroms)
 Number     Number       Type             X           Y           Z
 ---------------------------------------------------------------------
      1         78           0       -0.172532   -0.154169    0.002495
      2         17           0       -2.488780   -0.047403   -0.016028
      3         17           0       -0.065756   -2.470464    0.013457
      4          7           0       -0.306063    1.964354    0.003669
      5          1           0        0.080775    2.409699    0.832993
      6          1           0        0.086617    2.411358   -0.821999
      7          7           0        1.945982   -0.287703   -0.003138
      8          1           0        2.389858    0.100036   -0.832826
      9          1           0        2.394451    0.104078    0.822167
     10          1           0       -1.316967    2.131200    0.000364
     11          1           0        2.112830   -1.298610   -0.001155
 ---------------------------------------------------------------------
                    Distance matrix (angstroms):
                    1          2          3          4          5
     1  Pt   0.000000
     2  Cl   2.318781   0.000000
     3  Cl   2.318781   3.426826   0.000000
     4  N    2.122726   2.968469   4.441334   0.000000
     5  H    2.706900   3.655243   4.950666   1.017720   0.000000
     6  H    2.707189   3.650722   4.955137   1.017712   1.655004
     7  N    2.122726   4.441287   2.968470   3.184888   3.384389
     8  H    2.707069   4.948738   3.654272   3.382808   3.666246
     9  H    2.707020   4.956962   3.651698   3.379843   3.266359
    10  H    2.555903   2.473808   4.768753   1.024586   1.650611
    11  H    2.555903   4.768706   2.473801   4.061773   4.310059
                    6          7          8          9         10
     6  H    0.000000
     7  N    3.378269   0.000000
     8  H    3.263011   1.017718   0.000000
     9  H    3.654165   1.017715   1.655004   0.000000
    10  H    1.650702   4.061765   4.308176   4.308040   0.000000
    11  H    4.306180   1.024586   1.650646   1.650668   4.850475
                   11
    11  H    0.000000
 Stoichiometry    Cl2H6N2Pt
 Framework group  C1[X(Cl2H6N2Pt)]
 Deg. of freedom    27
 Full point group                 C1      NOp   1
 Largest Abelian subgroup         C1      NOp   1
 Largest concise Abelian subgroup C1      NOp   1
                         Standard orientation:                         
 ---------------------------------------------------------------------
 Center     Atomic      Atomic             Coordinates (Angstroms)
 Number     Number       Type             X           Y           Z
 ---------------------------------------------------------------------
      1         78           0       -0.000006    0.180890    0.001174
      2         17           0       -1.713340   -1.381529   -0.007827
      3         17           0        1.713462   -1.381402    0.005257
      4          7           0       -1.592482    1.584433    0.008783
      5          1           0       -1.629907    2.173574    0.837798
      6          1           0       -1.634871    2.177479   -0.817194
      7          7           0        1.592330    1.584537   -0.013266
      8          1           0        1.628029    2.171877   -0.843632
      9          1           0        1.636339    2.179383    0.811334
     10          1           0       -2.425259    0.987560    0.009968
     11          1           0        2.425153    0.987730   -0.014765
 ---------------------------------------------------------------------
 Rotational constants (GHZ):           2.1611252           1.6751026           0.9535206
 Basis read from rwf:  (5D, 7F)
 Pseudo-potential data read from rwf file.
 There are   137 symmetry adapted cartesian basis functions of A   symmetry.
 There are   130 symmetry adapted basis functions of A   symmetry.
   130 basis functions,   267 primitive gaussians,   137 cartesian basis functions
    36 alpha electrons       36 beta electrons
       nuclear repulsion energy       406.8635117979 Hartrees.
 NAtoms=   11 NActive=   11 NUniq=   11 SFac= 1.00D+00 NAtFMM=   60 NAOKFM=F Big=F
 Integral buffers will be    131072 words long.
 Raffenetti 2 integral format.
 Two-electron integral symmetry is turned on.
 Nuclear repulsion after empirical dispersion term =      406.8632555189 Hartrees.
 One-electron integrals computed using PRISM.
   1 Symmetry operations used in ECPInt.
 ECPInt:  NShTT=    1275 NPrTT=    5909 LenC2=    1252 LenP2D=    4464.
 LDataN:  DoStor=T MaxTD1= 7 Len=  274
 NBasis=   130 RedAO= T EigKep=  7.89D-03  NBF=   130
 NBsUse=   130 1.00D-06 EigRej= -1.00D+00 NBFU=   130
 Defaulting to unpruned grid for atomic number  78.
 Initial guess from the checkpoint file:  "cisplatin_opt_freq_m06.chk"
 B after Tr=    -0.000000   -0.000000    0.000000
         Rot=    1.000000    0.000054    0.000012   -0.000020 Ang=   0.01 deg.
 ExpMin= 1.50D-02 ExpMax= 2.52D+04 ExpMxC= 3.78D+03 IAcc=3 IRadAn=         5 AccDes= 0.00D+00
 Harris functional with IExCor= 1009 and IRadAn=       5 diagonalized for initial guess.
 HarFok:  IExCor= 1009 AccDes= 0.00D+00 IRadAn=         5 IDoV= 1 UseB2=F ITyADJ=14
 ICtDFT=  3500011 ScaDFX=  1.000000  1.000000  1.000000  1.000000
 Defaulting to unpruned grid for atomic number  78.
 FoFCou: FMM=F IPFlag=           0 FMFlag=      100000 FMFlg1=           0
         NFxFlg=           0 DoJE=T BraDBF=F KetDBF=T FulRan=T
         wScrn=  0.000000 ICntrl=       500 IOpCl=  0 I1Cent=   200000004 NGrid=           0
         NMat0=    1 NMatS0=      1 NMatT0=    0 NMatD0=    1 NMtDS0=    0 NMtDT0=    0
 Petite list used in FoFCou.
 Keep R1 ints in memory in canonical form, NReq=37571964.
 Requested convergence on RMS density matrix=1.00D-08 within 128 cycles.
 Requested convergence on MAX density matrix=1.00D-06.
 Requested convergence on             energy=1.00D-06.
 No special actions if energy rises.
 Defaulting to unpruned grid for atomic number  78.
 SCF Done:  E(RM062X) =  -1152.73174718     A.U. after   11 cycles
            NFock= 11  Conv=0.61D-08     -V/T= 2.0755
   1 Symmetry operations used in ECPInt.
 ECPInt:  NShTT=    1275 NPrTT=    5909 LenC2=    1252 LenP2D=    4464.
 LDataN:  DoStor=T MaxTD1= 8 Len=  415
 Calling FoFJK, ICntrl=      2127 FMM=F ISym2X=0 I1Cent= 0 IOpClX= 0 NMat=1 NMatS=1 NMatT=0.
 Defaulting to unpruned grid for atomic number  78.
 ***** Axes restored to original set *****
 -------------------------------------------------------------------
 Center     Atomic                   Forces (Hartrees/Bohr)
 Number     Number              X              Y              Z
 -------------------------------------------------------------------
      1       78           0.000890055    0.000888440   -0.000410966
      2       17          -0.000086217   -0.000161193    0.000321284
      3       17          -0.000161497   -0.000081269   -0.000144391
      4        7          -0.000228496    0.000705793   -0.000135288
      5        1           0.000068063   -0.000367900   -0.000504915
      6        1           0.000008080   -0.000284327    0.000509039
      7        7           0.000709381   -0.000227741    0.000410838
      8        1          -0.000415511    0.000070772    0.000496319
      9        1          -0.000236513    0.000005008   -0.000518468
     10        1           0.000333986   -0.000881241   -0.000051358
     11        1          -0.000881329    0.000333659    0.000027907
 -------------------------------------------------------------------
 Cartesian Forces:  Max     0.000890055 RMS     0.000443692

 GradGradGradGradGradGradGradGradGradGradGradGradGradGradGradGradGradGrad
 Berny optimization.
 Using GEDIIS/GDIIS optimizer.
 FormGI is forming the generalized inverse of G from B-inverse, IUseBI=4.
 Internal  Forces:  Max     0.001027154 RMS     0.000426977
 Search for a local minimum.
 Step number   4 out of a maximum of   52
 All quantities printed in internal units (Hartrees-Bohrs-Radians)
 Mixed Optimization -- En-DIIS/RFO-DIIS
 Swapping is turned off.
 Update second derivatives using D2CorX and points    1    2    3    4
 DE= -1.44D-04 DEPred=-1.18D-04 R= 1.21D+00
 TightC=F SS=  1.41D+00  RLast= 4.83D-02 DXNew= 1.0696D+00 1.4493D-01
 Trust test= 1.21D+00 RLast= 4.83D-02 DXMaxT set to 6.36D-01
 ITU=  1  1  1  0
     Eigenvalues ---    0.00230   0.00230   0.00230   0.00262   0.05593
     Eigenvalues ---    0.06153   0.07665   0.07668   0.08963   0.12615
     Eigenvalues ---    0.13068   0.15978   0.16000   0.16000   0.16000
     Eigenvalues ---    0.16099   0.19537   0.20378   0.21802   0.22001
     Eigenvalues ---    0.24463   0.47605   0.47688   0.47688   0.47688
     Eigenvalues ---    0.47690   0.48162
 En-DIIS/RFO-DIIS/Sim-DIIS IScMMF=       -3 using points:     4    3
 RFO step:  Lambda=-5.35085822D-04.
 DidBck=T Rises=F RFO-DIIS coefs:    0.13120    0.86880
 Iteration  1 RMS(Cart)=  0.14431203 RMS(Int)=  0.00963829
 Iteration  2 RMS(Cart)=  0.01197423 RMS(Int)=  0.00245548
 Iteration  3 RMS(Cart)=  0.00009937 RMS(Int)=  0.00245486
 Iteration  4 RMS(Cart)=  0.00000044 RMS(Int)=  0.00245486
 Variable       Old X    -DE/DX   Delta X   Delta X   Delta X     New X
                                 (Linear)    (Quad)   (Total)
    R1        4.38186   0.00008  -0.00248   0.01103   0.00855   4.39041
    R2        4.38186   0.00007  -0.00248   0.01102   0.00854   4.39040
    R3        4.01137  -0.00084  -0.00369   0.01543   0.01174   4.02311
    R4        4.01137  -0.00083  -0.00369   0.01545   0.01176   4.02313
    R5        1.92321  -0.00055   0.00159  -0.00583  -0.00424   1.91897
    R6        1.92320  -0.00053   0.00159  -0.00581  -0.00422   1.91898
    R7        1.93619  -0.00047   0.00010  -0.00027  -0.00017   1.93602
    R8        1.92321  -0.00056   0.00159  -0.00586  -0.00427   1.91893
    R9        1.92320  -0.00052   0.00159  -0.00578  -0.00419   1.91901
   R10        1.93619  -0.00047   0.00010  -0.00027  -0.00017   1.93602
    A1        1.66296  -0.00036  -0.00049   0.00118   0.01195   1.67491
    A2        1.46180   0.00005   0.00671  -0.02670  -0.01436   1.44744
    A3        1.46180   0.00005   0.00671  -0.02670  -0.01445   1.44735
    A4        1.69669   0.00026  -0.01299   0.05006   0.03702   1.73371
    A5        1.99683  -0.00007  -0.00484   0.01881   0.01389   2.01072
    A6        1.99724   0.00007  -0.00479   0.01966   0.01479   2.01203
    A7        1.79731  -0.00103   0.01961  -0.07793  -0.05825   1.73906
    A8        1.89890   0.00001   0.00293  -0.00990  -0.00714   1.89176
    A9        1.88220   0.00057  -0.00639   0.02461   0.01828   1.90048
   A10        1.88237   0.00049  -0.00636   0.02369   0.01740   1.89977
   A11        1.99707  -0.00016  -0.00485   0.01811   0.01317   2.01023
   A12        1.99700   0.00016  -0.00478   0.02037   0.01552   2.01253
   A13        1.79731  -0.00103   0.01961  -0.07793  -0.05826   1.73905
   A14        1.89890   0.00001   0.00293  -0.00991  -0.00714   1.89176
   A15        1.88226   0.00058  -0.00637   0.02437   0.01804   1.90030
   A16        1.88230   0.00048  -0.00639   0.02393   0.01764   1.89994
   A17        3.15849   0.00031  -0.00628   0.02336   0.02266   3.18115
   A18        3.15849   0.00031  -0.00628   0.02337   0.02257   3.18106
   A19        3.15229  -0.00056  -0.00970  -0.21071  -0.21997   2.93233
   A20        3.14686  -0.00025  -0.00477  -0.09504  -0.09887   3.04799
    D1        2.04210  -0.00028  -0.00306  -0.11591  -0.11883   1.92327
    D2       -2.03317  -0.00027  -0.00751  -0.09531  -0.10251  -2.13569
    D3        0.00466  -0.00029  -0.00525  -0.10598  -0.11101  -0.10635
    D4       -1.11020   0.00027   0.00664   0.09480   0.10114  -1.00906
    D5        1.09772   0.00028   0.00220   0.11539   0.11746   1.21517
    D6        3.13555   0.00026   0.00446   0.10473   0.10896  -3.03868
    D7        2.04008  -0.00014  -0.00015  -0.05708  -0.05684   1.98324
    D8       -2.03519  -0.00013  -0.00460  -0.03648  -0.04051  -2.07571
    D9        0.00245  -0.00011  -0.00237  -0.04649  -0.04841  -0.04596
   D10       -1.10679   0.00012   0.00461   0.03796   0.04203  -1.06475
   D11        1.10113   0.00013   0.00017   0.05856   0.05835   1.15948
   D12        3.13877   0.00014   0.00240   0.04855   0.05046  -3.09396
         Item               Value     Threshold  Converged?
 Maximum Force            0.001027     0.000450     NO 
 RMS     Force            0.000427     0.000300     NO 
 Maximum Displacement     0.594487     0.001800     NO 
 RMS     Displacement     0.150977     0.001200     NO 
 Predicted change in Energy=-2.941039D-04
 GradGradGradGradGradGradGradGradGradGradGradGradGradGradGradGradGradGrad

                          Input orientation:                          
 ---------------------------------------------------------------------
 Center     Atomic      Atomic             Coordinates (Angstroms)
 Number     Number       Type             X           Y           Z
 ---------------------------------------------------------------------
      1         78           0       -0.152592   -0.132725   -0.054581
      2         17           0       -2.446562   -0.029063    0.298561
      3         17           0       -0.043567   -2.444688   -0.256205
      4          7           0       -0.324622    1.989185   -0.071565
      5          1           0        0.084774    2.462672    0.728057
      6          1           0        0.005790    2.444308   -0.917075
      7          7           0        1.966016   -0.306475    0.062589
      8          1           0        2.476464    0.099381   -0.715790
      9          1           0        2.381795    0.026882    0.927017
     10          1           0       -1.344062    2.079056   -0.024047
     11          1           0        2.056983   -1.326159    0.023038
 ---------------------------------------------------------------------
                    Distance matrix (angstroms):
                    1          2          3          4          5
     1  Pt   0.000000
     2  Cl   2.323307   0.000000
     3  Cl   2.323298   3.452159   0.000000
     4  N    2.128940   2.951771   4.446607   0.000000
     5  H    2.721204   3.577831   5.006738   1.015475   0.000000
     6  H    2.722146   3.689087   4.933708   1.015479   1.647129
     7  N    2.128949   4.427583   2.951611   3.245778   3.413224
     8  H    2.720847   5.028080   3.610271   3.439835   3.659237
     9  H    2.722523   4.869407   3.659379   3.488910   3.353948
    10  H    2.512470   2.400780   4.712690   1.024497   1.659637
    11  H    2.512476   4.694709   2.396120   4.083197   4.329192
                    6          7          8          9         10
     6  H    0.000000
     7  N    3.516965   0.000000
     8  H    3.412247   1.015455   0.000000
     9  H    3.858761   1.015497   1.647129   0.000000
    10  H    1.659219   4.081040   4.358215   4.358665   0.000000
    11  H    4.394045   1.024497   1.659517   1.659338   4.812984
                   11
    11  H    0.000000
 Stoichiometry    Cl2H6N2Pt
 Framework group  C1[X(Cl2H6N2Pt)]
 Deg. of freedom    27
 Full point group                 C1      NOp   1
 Largest Abelian subgroup         C1      NOp   1
 Largest concise Abelian subgroup C1      NOp   1
                         Standard orientation:                         
 ---------------------------------------------------------------------
 Center     Atomic      Atomic             Coordinates (Angstroms)
 Number     Number       Type             X           Y           Z
 ---------------------------------------------------------------------
      1         78           0       -0.002231    0.183946   -0.024576
      2         17           0       -1.699845   -1.392372    0.151731
      3         17           0        1.742936   -1.347923   -0.098637
      4          7           0       -1.636014    1.541862   -0.163149
      5          1           0       -1.760854    2.151561    0.639267
      6          1           0       -1.656984    2.110718   -1.004077
      7          7           0        1.582113    1.577633    0.258109
      8          1           0        1.715366    2.239854   -0.500084
      9          1           0        1.556077    2.092988    1.132733
     10          1           0       -2.412044    0.873812   -0.196019
     11          1           0        2.377209    0.931855    0.277797
 ---------------------------------------------------------------------
 Rotational constants (GHZ):           2.1797642           1.6391981           0.9554940
 Basis read from rwf:  (5D, 7F)
 Pseudo-potential data read from rwf file.
 There are   137 symmetry adapted cartesian basis functions of A   symmetry.
 There are   130 symmetry adapted basis functions of A   symmetry.
   130 basis functions,   267 primitive gaussians,   137 cartesian basis functions
    36 alpha electrons       36 beta electrons
       nuclear repulsion energy       406.4653482690 Hartrees.
 NAtoms=   11 NActive=   11 NUniq=   11 SFac= 1.00D+00 NAtFMM=   60 NAOKFM=F Big=F
 Integral buffers will be    131072 words long.
 Raffenetti 2 integral format.
 Two-electron integral symmetry is turned on.
 Nuclear repulsion after empirical dispersion term =      406.4650879303 Hartrees.
 One-electron integrals computed using PRISM.
   1 Symmetry operations used in ECPInt.
 ECPInt:  NShTT=    1275 NPrTT=    5909 LenC2=    1253 LenP2D=    4468.
 LDataN:  DoStor=T MaxTD1= 7 Len=  274
 NBasis=   130 RedAO= T EigKep=  8.36D-03  NBF=   130
 NBsUse=   130 1.00D-06 EigRej= -1.00D+00 NBFU=   130
 Defaulting to unpruned grid for atomic number  78.
 Initial guess from the checkpoint file:  "cisplatin_opt_freq_m06.chk"
 B after Tr=    -0.000000   -0.000000   -0.000000
         Rot=    0.999974   -0.000861    0.001307   -0.007003 Ang=  -0.82 deg.
 ExpMin= 1.50D-02 ExpMax= 2.52D+04 ExpMxC= 3.78D+03 IAcc=3 IRadAn=         5 AccDes= 0.00D+00
 Harris functional with IExCor= 1009 and IRadAn=       5 diagonalized for initial guess.
 HarFok:  IExCor= 1009 AccDes= 0.00D+00 IRadAn=         5 IDoV= 1 UseB2=F ITyADJ=14
 ICtDFT=  3500011 ScaDFX=  1.000000  1.000000  1.000000  1.000000
 Defaulting to unpruned grid for atomic number  78.
 FoFCou: FMM=F IPFlag=           0 FMFlag=      100000 FMFlg1=           0
         NFxFlg=           0 DoJE=T BraDBF=F KetDBF=T FulRan=T
         wScrn=  0.000000 ICntrl=       500 IOpCl=  0 I1Cent=   200000004 NGrid=           0
         NMat0=    1 NMatS0=      1 NMatT0=    0 NMatD0=    1 NMtDS0=    0 NMtDT0=    0
 Petite list used in FoFCou.
 Keep R1 ints in memory in canonical form, NReq=37571964.
 Requested convergence on RMS density matrix=1.00D-08 within 128 cycles.
 Requested convergence on MAX density matrix=1.00D-06.
 Requested convergence on             energy=1.00D-06.
 No special actions if energy rises.
 Defaulting to unpruned grid for atomic number  78.
 SCF Done:  E(RM062X) =  -1152.72801875     A.U. after   14 cycles
            NFock= 14  Conv=0.60D-08     -V/T= 2.0755
   1 Symmetry operations used in ECPInt.
 ECPInt:  NShTT=    1275 NPrTT=    5909 LenC2=    1253 LenP2D=    4468.
 LDataN:  DoStor=T MaxTD1= 8 Len=  415
 Calling FoFJK, ICntrl=      2127 FMM=F ISym2X=0 I1Cent= 0 IOpClX= 0 NMat=1 NMatS=1 NMatT=0.
 Defaulting to unpruned grid for atomic number  78.
 ***** Axes restored to original set *****
 -------------------------------------------------------------------
 Center     Atomic                   Forces (Hartrees/Bohr)
 Number     Number              X              Y              Z
 -------------------------------------------------------------------
      1       78           0.001730125    0.001141720    0.007926904
      2       17          -0.001860662   -0.000759786   -0.005952701
      3       17          -0.000981463   -0.000102678    0.002584128
      4        7           0.000572833   -0.003159738    0.002440633
      5        1          -0.000853185    0.000535480    0.001536854
      6        1           0.000158879   -0.001035174   -0.001626753
      7        7          -0.001663364    0.000827339   -0.007902476
      8        1           0.001567770   -0.000976110   -0.001298898
      9        1          -0.002007720    0.000232197    0.001606366
     10        1           0.000522100    0.002836321    0.000975198
     11        1           0.002814687    0.000460428   -0.000289255
 -------------------------------------------------------------------
 Cartesian Forces:  Max     0.007926904 RMS     0.002656020

 GradGradGradGradGradGradGradGradGradGradGradGradGradGradGradGradGradGrad
 Berny optimization.
 Using GEDIIS/GDIIS optimizer.
 FormGI is forming the generalized inverse of G from B-inverse, IUseBI=4.
 Internal  Forces:  Max     0.010581979 RMS     0.003237064
 Search for a local minimum.
 Step number   5 out of a maximum of   52
 All quantities printed in internal units (Hartrees-Bohrs-Radians)
 Mixed Optimization -- RFO/linear search
 Update second derivatives using D2CorX and points    1    2    3    5    4
 DE=  3.73D-03 DEPred=-2.94D-04 R=-1.27D+01
 Trust test=-1.27D+01 RLast= 3.98D-01 DXMaxT set to 3.18D-01
 ITU= -1  1  1  1  0
 Use linear search instead of GDIIS.
     Eigenvalues ---    0.00230   0.00230   0.00284   0.04851   0.05058
     Eigenvalues ---    0.05994   0.07913   0.07930   0.09312   0.11393
     Eigenvalues ---    0.12618   0.14437   0.16000   0.16000   0.16000
     Eigenvalues ---    0.16483   0.16814   0.20389   0.21772   0.22010
     Eigenvalues ---    0.24726   0.46297   0.47670   0.47688   0.47688
     Eigenvalues ---    0.47688   0.47693
 RFO step:  Lambda=-3.40260798D-05 EMin= 2.29991725D-03
 Quartic linear search produced a step of -0.93864.
 Iteration  1 RMS(Cart)=  0.13869668 RMS(Int)=  0.00849347
 Iteration  2 RMS(Cart)=  0.00962025 RMS(Int)=  0.00017432
 Iteration  3 RMS(Cart)=  0.00004073 RMS(Int)=  0.00017245
 Iteration  4 RMS(Cart)=  0.00000001 RMS(Int)=  0.00017245
 Variable       Old X    -DE/DX   Delta X   Delta X   Delta X     New X
                                 (Linear)    (Quad)   (Total)
    R1        4.39041   0.00090  -0.00803   0.00049  -0.00753   4.38288
    R2        4.39040  -0.00017  -0.00801   0.00018  -0.00783   4.38257
    R3        4.02311  -0.00088  -0.01102  -0.00598  -0.01700   4.00611
    R4        4.02313   0.00023  -0.01104  -0.00564  -0.01667   4.00646
    R5        1.91897   0.00112   0.00398  -0.00137   0.00261   1.92158
    R6        1.91898   0.00094   0.00396  -0.00137   0.00260   1.92157
    R7        1.93602  -0.00023   0.00016  -0.00134  -0.00118   1.93484
    R8        1.91893   0.00139   0.00401  -0.00137   0.00264   1.92158
    R9        1.91901   0.00062   0.00393  -0.00138   0.00256   1.92157
   R10        1.93602  -0.00020   0.00016  -0.00134  -0.00118   1.93484
    A1        1.67491  -0.00265  -0.01122  -0.00447  -0.01647   1.65844
    A2        1.44744   0.00185   0.01347   0.00134   0.01442   1.46186
    A3        1.44735   0.00218   0.01356   0.00150   0.01467   1.46202
    A4        1.73371  -0.00337  -0.03475   0.00190  -0.03285   1.70086
    A5        2.01072   0.00023  -0.01304  -0.00065  -0.01368   1.99704
    A6        2.01203  -0.00249  -0.01388  -0.00065  -0.01453   1.99751
    A7        1.73906   0.00398   0.05468  -0.00621   0.04849   1.78755
    A8        1.89176   0.00124   0.00670   0.00041   0.00711   1.89888
    A9        1.90048  -0.00229  -0.01716   0.00369  -0.01345   1.88703
   A10        1.89977  -0.00071  -0.01634   0.00370  -0.01262   1.88715
   A11        2.01023   0.00200  -0.01236  -0.00063  -0.01298   1.99725
   A12        2.01253  -0.00413  -0.01457  -0.00060  -0.01517   1.99736
   A13        1.73905   0.00391   0.05468  -0.00625   0.04845   1.78751
   A14        1.89176   0.00118   0.00670   0.00040   0.00710   1.89887
   A15        1.90030  -0.00235  -0.01693   0.00369  -0.01322   1.88708
   A16        1.89994  -0.00065  -0.01656   0.00368  -0.01287   1.88708
   A17        3.18115  -0.00153  -0.02127   0.00324  -0.01843   3.16272
   A18        3.18106  -0.00120  -0.02118   0.00340  -0.01818   3.16288
   A19        2.93233   0.01058   0.20647   0.00529   0.21176   3.14409
   A20        3.04799   0.00447   0.09280  -0.00341   0.08939   3.13739
    D1        1.92327   0.00542   0.11154   0.00315   0.11468   2.03794
    D2       -2.13569   0.00507   0.09622   0.00252   0.09875  -2.03693
    D3       -0.10635   0.00561   0.10420   0.00284   0.10704   0.00069
    D4       -1.00906  -0.00516  -0.09493  -0.00214  -0.09708  -1.10614
    D5        1.21517  -0.00551  -0.11025  -0.00277  -0.11301   1.10216
    D6       -3.03868  -0.00497  -0.10227  -0.00245  -0.10472   3.13979
    D7        1.98324   0.00241   0.05335  -0.00244   0.05089   2.03414
    D8       -2.07571   0.00210   0.03803  -0.00303   0.03501  -2.04070
    D9       -0.04596   0.00197   0.04544  -0.00274   0.04270  -0.00326
   D10       -1.06475  -0.00206  -0.03945   0.00097  -0.03850  -1.10325
   D11        1.15948  -0.00237  -0.05477   0.00038  -0.05438   1.10510
   D12       -3.09396  -0.00250  -0.04736   0.00067  -0.04669  -3.14065
         Item               Value     Threshold  Converged?
 Maximum Force            0.010582     0.000450     NO 
 RMS     Force            0.003237     0.000300     NO 
 Maximum Displacement     0.564685     0.001800     NO 
 RMS     Displacement     0.142514     0.001200     NO 
 Predicted change in Energy=-1.815788D-05
 GradGradGradGradGradGradGradGradGradGradGradGradGradGradGradGradGradGrad

                          Input orientation:                          
 ---------------------------------------------------------------------
 Center     Atomic      Atomic             Coordinates (Angstroms)
 Number     Number       Type             X           Y           Z
 ---------------------------------------------------------------------
      1         78           0       -0.168011   -0.149643    0.002996
      2         17           0       -2.485096   -0.047904   -0.000258
      3         17           0       -0.066550   -2.466568   -0.003309
      4          7           0       -0.305822    1.965813   -0.000053
      5          1           0        0.081812    2.413572    0.826534
      6          1           0        0.083085    2.411700   -0.827050
      7          7           0        1.947634   -0.287385    0.000784
      8          1           0        2.393526    0.100401   -0.826739
      9          1           0        2.395415    0.101352    0.826836
     10          1           0       -1.317935    2.120536   -0.000936
     11          1           0        2.102358   -1.299500    0.001194
 ---------------------------------------------------------------------
                    Distance matrix (angstroms):
                    1          2          3          4          5
     1  Pt   0.000000
     2  Cl   2.319320   0.000000
     3  Cl   2.319154   3.420426   0.000000
     4  N    2.119942   2.967202   4.438835   0.000000
     5  H    2.703831   3.651228   4.952415   1.016856   0.000000
     6  H    2.704164   3.650862   4.949590   1.016852   1.653585
     7  N    2.120126   4.439195   2.967456   3.186686   3.385015
     8  H    2.704155   4.950356   3.649567   3.383734   3.664436
     9  H    2.704231   4.952348   3.653029   3.384766   3.270950
    10  H    2.544809   2.462600   4.754734   1.023871   1.652232
    11  H    2.544946   4.755127   2.462971   4.057290   4.307052
                    6          7          8          9         10
     6  H    0.000000
     7  N    3.383329   0.000000
     8  H    3.268064   1.016854   0.000000
     9  H    3.663320   1.016850   1.653576   0.000000
    10  H    1.652301   4.057343   4.305559   4.307119   0.000000
    11  H    4.305399   1.023873   1.652264   1.652257   4.836844
                   11
    11  H    0.000000
 Stoichiometry    Cl2H6N2Pt
 Framework group  C1[X(Cl2H6N2Pt)]
 Deg. of freedom    27
 Full point group                 C1      NOp   1
 Largest Abelian subgroup         C1      NOp   1
 Largest concise Abelian subgroup C1      NOp   1
                         Standard orientation:                         
 ---------------------------------------------------------------------
 Center     Atomic      Atomic             Coordinates (Angstroms)
 Number     Number       Type             X           Y           Z
 ---------------------------------------------------------------------
      1         78           0        0.000083    0.182899    0.001441
      2         17           0       -1.710715   -1.383118   -0.000871
      3         17           0        1.709711   -1.384147   -0.002274
      4          7           0       -1.592830    1.581740   -0.003951
      5          1           0       -1.635579    2.173396    0.821949
      6          1           0       -1.632560    2.171108   -0.831632
      7          7           0        1.593855    1.581046   -0.001579
      8          1           0        1.635503    2.169601   -0.829746
      9          1           0        1.635370    2.173473    0.823825
     10          1           0       -2.418074    0.975701   -0.004549
     11          1           0        2.418767    0.974553   -0.000088
 ---------------------------------------------------------------------
 Rotational constants (GHZ):           2.1595886           1.6791390           0.9544851
 Basis read from rwf:  (5D, 7F)
 Pseudo-potential data read from rwf file.
 There are   137 symmetry adapted cartesian basis functions of A   symmetry.
 There are   130 symmetry adapted basis functions of A   symmetry.
   130 basis functions,   267 primitive gaussians,   137 cartesian basis functions
    36 alpha electrons       36 beta electrons
       nuclear repulsion energy       407.1389563222 Hartrees.
 NAtoms=   11 NActive=   11 NUniq=   11 SFac= 1.00D+00 NAtFMM=   60 NAOKFM=F Big=F
 Integral buffers will be    131072 words long.
 Raffenetti 2 integral format.
 Two-electron integral symmetry is turned on.
 Nuclear repulsion after empirical dispersion term =      407.1386998780 Hartrees.
 One-electron integrals computed using PRISM.
   1 Symmetry operations used in ECPInt.
 ECPInt:  NShTT=    1275 NPrTT=    5909 LenC2=    1252 LenP2D=    4464.
 LDataN:  DoStor=T MaxTD1= 7 Len=  274
 NBasis=   130 RedAO= T EigKep=  7.88D-03  NBF=   130
 NBsUse=   130 1.00D-06 EigRej= -1.00D+00 NBFU=   130
 Defaulting to unpruned grid for atomic number  78.
 Lowest energy guess from the checkpoint file:  "cisplatin_opt_freq_m06.chk"
 B after Tr=    -0.000000    0.000000   -0.000000
         Rot=    1.000000    0.000021    0.000087    0.000172 Ang=   0.02 deg.
 B after Tr=     0.000000    0.000000    0.000000
         Rot=    0.999973    0.000844   -0.001264    0.007176 Ang=   0.84 deg.
 Keep R1 ints in memory in canonical form, NReq=37571964.
 Requested convergence on RMS density matrix=1.00D-08 within 128 cycles.
 Requested convergence on MAX density matrix=1.00D-06.
 Requested convergence on             energy=1.00D-06.
 No special actions if energy rises.
 Defaulting to unpruned grid for atomic number  78.
 SCF Done:  E(RM062X) =  -1152.73177934     A.U. after   11 cycles
            NFock= 11  Conv=0.44D-08     -V/T= 2.0755
   1 Symmetry operations used in ECPInt.
 ECPInt:  NShTT=    1275 NPrTT=    5909 LenC2=    1252 LenP2D=    4464.
 LDataN:  DoStor=T MaxTD1= 8 Len=  415
 Calling FoFJK, ICntrl=      2127 FMM=F ISym2X=0 I1Cent= 0 IOpClX= 0 NMat=1 NMatS=1 NMatT=0.
 Defaulting to unpruned grid for atomic number  78.
 ***** Axes restored to original set *****
 -------------------------------------------------------------------
 Center     Atomic                   Forces (Hartrees/Bohr)
 Number     Number              X              Y              Z
 -------------------------------------------------------------------
      1       78           0.000068292    0.000084520   -0.000509045
      2       17          -0.000091004    0.000058512    0.000083797
      3       17           0.000072564   -0.000128108    0.000136404
      4        7           0.000219793   -0.000102968    0.000204533
      5        1          -0.000009137    0.000075584    0.000112801
      6        1           0.000001789   -0.000002679   -0.000126606
      7        7          -0.000138587    0.000203851    0.000146537
      8        1           0.000009096   -0.000006157   -0.000125872
      9        1           0.000056295   -0.000000178    0.000116741
     10        1          -0.000168463   -0.000018570   -0.000012786
     11        1          -0.000020639   -0.000163808   -0.000026504
 -------------------------------------------------------------------
 Cartesian Forces:  Max     0.000509045 RMS     0.000138946

 GradGradGradGradGradGradGradGradGradGradGradGradGradGradGradGradGradGrad
 Berny optimization.
 Using GEDIIS/GDIIS optimizer.
 FormGI is forming the generalized inverse of G from B-inverse, IUseBI=4.
 Internal  Forces:  Max     0.000232076 RMS     0.000098026
 Search for a local minimum.
 Step number   6 out of a maximum of   52
 All quantities printed in internal units (Hartrees-Bohrs-Radians)
 Mixed Optimization -- En-DIIS/RFO-DIIS
 Update second derivatives using D2CorX and points    1    2    3    5    4
                                                      6
 DE= -3.22D-05 DEPred=-1.82D-05 R= 1.77D+00
 TightC=F SS=  1.41D+00  RLast= 2.87D-02 DXNew= 5.3479D-01 8.6210D-02
 Trust test= 1.77D+00 RLast= 2.87D-02 DXMaxT set to 3.18D-01
 ITU=  1 -1  1  1  1  0
 Use linear search instead of GDIIS.
     Eigenvalues ---    0.00229   0.00230   0.00251   0.04810   0.05582
     Eigenvalues ---    0.06157   0.07719   0.07720   0.09430   0.12593
     Eigenvalues ---    0.12620   0.14126   0.16000   0.16000   0.16048
     Eigenvalues ---    0.16489   0.17190   0.20392   0.21855   0.22013
     Eigenvalues ---    0.24686   0.47629   0.47686   0.47688   0.47688
     Eigenvalues ---    0.47693   0.47970
 RFO step:  Lambda=-7.23170121D-05 EMin= 2.29294305D-03
 Quartic linear search produced a step of -0.03313.
 Iteration  1 RMS(Cart)=  0.03469142 RMS(Int)=  0.00137341
 Iteration  2 RMS(Cart)=  0.00156969 RMS(Int)=  0.00044301
 Iteration  3 RMS(Cart)=  0.00000071 RMS(Int)=  0.00044301
 Variable       Old X    -DE/DX   Delta X   Delta X   Delta X     New X
                                 (Linear)    (Quad)   (Total)
    R1        4.38288   0.00009  -0.00003   0.00247   0.00244   4.38531
    R2        4.38257   0.00013  -0.00002   0.00223   0.00221   4.38478
    R3        4.00611  -0.00005   0.00017  -0.00454  -0.00437   4.00174
    R4        4.00646  -0.00010   0.00016  -0.00431  -0.00415   4.00231
    R5        1.92158   0.00012   0.00005  -0.00182  -0.00176   1.91982
    R6        1.92157   0.00010   0.00005  -0.00185  -0.00179   1.91978
    R7        1.93484   0.00016   0.00004  -0.00109  -0.00105   1.93379
    R8        1.92158   0.00010   0.00005  -0.00185  -0.00179   1.91978
    R9        1.92157   0.00012   0.00005  -0.00183  -0.00177   1.91980
   R10        1.93484   0.00016   0.00004  -0.00110  -0.00105   1.93379
    A1        1.65844   0.00013   0.00015  -0.00394  -0.00582   1.65262
    A2        1.46186  -0.00005  -0.00000  -0.00178  -0.00279   1.45907
    A3        1.46202  -0.00008  -0.00001  -0.00178  -0.00280   1.45921
    A4        1.70086   0.00000  -0.00014   0.00791   0.00777   1.70863
    A5        1.99704   0.00008  -0.00001   0.00226   0.00224   1.99929
    A6        1.99751  -0.00006  -0.00001   0.00130   0.00129   1.99879
    A7        1.78755  -0.00008   0.00032  -0.01638  -0.01606   1.77149
    A8        1.89888   0.00004   0.00000   0.00007   0.00006   1.89894
    A9        1.88703  -0.00000  -0.00016   0.00644   0.00628   1.89331
   A10        1.88715   0.00002  -0.00016   0.00634   0.00617   1.89332
   A11        1.99725  -0.00004  -0.00001   0.00148   0.00147   1.99872
   A12        1.99736   0.00005  -0.00001   0.00211   0.00210   1.99946
   A13        1.78751  -0.00008   0.00032  -0.01643  -0.01611   1.77139
   A14        1.89887   0.00005   0.00000   0.00008   0.00008   1.89894
   A15        1.88708   0.00000  -0.00016   0.00626   0.00609   1.89317
   A16        1.88708   0.00001  -0.00016   0.00653   0.00636   1.89344
   A17        3.16272  -0.00005  -0.00014   0.00613   0.00498   3.16770
   A18        3.16288  -0.00008  -0.00015   0.00613   0.00497   3.16785
   A19        3.14409  -0.00014   0.00027  -0.04598  -0.04564   3.09845
   A20        3.13739   0.00023   0.00031   0.09248   0.09276   3.23015
    D1        2.03794  -0.00010   0.00014  -0.02567  -0.02550   2.01245
    D2       -2.03693  -0.00003   0.00012  -0.02236  -0.02221  -2.05914
    D3        0.00069  -0.00009   0.00013  -0.02431  -0.02414  -0.02346
    D4       -1.10614   0.00004  -0.00013   0.02031   0.02014  -1.08600
    D5        1.10216   0.00011  -0.00015   0.02361   0.02343   1.12559
    D6        3.13979   0.00005  -0.00014   0.02167   0.02149  -3.12191
    D7        2.03414   0.00008   0.00020   0.04517   0.04535   2.07948
    D8       -2.04070   0.00015   0.00018   0.04852   0.04869  -1.99201
    D9       -0.00326   0.00014   0.00019   0.04716   0.04733   0.04407
   D10       -1.10325  -0.00016  -0.00012  -0.04731  -0.04741  -1.15066
   D11        1.10510  -0.00008  -0.00013  -0.04396  -0.04407   1.06103
   D12       -3.14065  -0.00009  -0.00012  -0.04532  -0.04543   3.09711
         Item               Value     Threshold  Converged?
 Maximum Force            0.000232     0.000450     YES
 RMS     Force            0.000098     0.000300     YES
 Maximum Displacement     0.130317     0.001800     NO 
 RMS     Displacement     0.034933     0.001200     NO 
 Predicted change in Energy=-3.702273D-05
 GradGradGradGradGradGradGradGradGradGradGradGradGradGradGradGradGradGrad

                          Input orientation:                          
 ---------------------------------------------------------------------
 Center     Atomic      Atomic             Coordinates (Angstroms)
 Number     Number       Type             X           Y           Z
 ---------------------------------------------------------------------
      1         78           0       -0.160520   -0.142378   -0.062803
      2         17           0       -2.478669   -0.045547   -0.017746
      3         17           0       -0.064877   -2.457168    0.065652
      4          7           0       -0.307365    1.969075    0.004717
      5          1           0        0.072484    2.391914    0.846751
      6          1           0        0.081107    2.444851   -0.804472
      7          7           0        1.951801   -0.288854   -0.015114
      8          1           0        2.419039    0.086304   -0.835486
      9          1           0        2.383688    0.104327    0.816126
     10          1           0       -1.321860    2.103143    0.003718
     11          1           0        2.085587   -1.303293   -0.001343
 ---------------------------------------------------------------------
                    Distance matrix (angstroms):
                    1          2          3          4          5
     1  Pt   0.000000
     2  Cl   2.320608   0.000000
     3  Cl   2.320323   3.413102   0.000000
     4  N    2.117630   2.962055   4.433299   0.000000
     5  H    2.702632   3.632761   4.913510   1.015923   0.000000
     6  H    2.702260   3.656976   4.980784   1.015903   1.652093
     7  N    2.117930   4.437147   2.962279   3.194130   3.385434
     8  H    2.702492   4.967256   3.667579   3.418193   3.694872
     9  H    2.703030   4.935618   3.622145   3.373045   3.252024
    10  H    2.528932   2.440397   4.730779   1.023316   1.654777
    11  H    2.529130   4.734409   2.441395   4.053967   4.292599
                    6          7          8          9         10
     6  H    0.000000
     7  N    3.405250   0.000000
     8  H    3.321089   1.015906   0.000000
     9  H    3.661457   1.015912   1.652088   0.000000
    10  H    1.654766   4.054486   4.332000   4.287931   0.000000
    11  H    4.325684   1.023316   1.654680   1.654845   4.818145
                   11
    11  H    0.000000
 Stoichiometry    Cl2H6N2Pt
 Framework group  C1[X(Cl2H6N2Pt)]
 Deg. of freedom    27
 Full point group                 C1      NOp   1
 Largest Abelian subgroup         C1      NOp   1
 Largest concise Abelian subgroup C1      NOp   1
                         Standard orientation:                         
 ---------------------------------------------------------------------
 Center     Atomic      Atomic             Coordinates (Angstroms)
 Number     Number       Type             X           Y           Z
 ---------------------------------------------------------------------
      1         78           0        0.000577    0.185933   -0.028192
      2         17           0       -1.711497   -1.380089    0.011842
      3         17           0        1.701384   -1.390504    0.049266
      4          7           0       -1.590630    1.578579    0.085617
      5          1           0       -1.607851    2.131106    0.937976
      6          1           0       -1.661196    2.204256   -0.711635
      7          7           0        1.602870    1.570018    0.022763
      8          1           0        1.658935    2.180057   -0.787653
      9          1           0        1.643319    2.138382    0.863835
     10          1           0       -2.404780    0.958633    0.084455
     11          1           0        2.412836    0.944669    0.014479
 ---------------------------------------------------------------------
 Rotational constants (GHZ):           2.1590278           1.6803131           0.9560845
 Basis read from rwf:  (5D, 7F)
 Pseudo-potential data read from rwf file.
 There are   137 symmetry adapted cartesian basis functions of A   symmetry.
 There are   130 symmetry adapted basis functions of A   symmetry.
   130 basis functions,   267 primitive gaussians,   137 cartesian basis functions
    36 alpha electrons       36 beta electrons
       nuclear repulsion energy       407.4658508953 Hartrees.
 NAtoms=   11 NActive=   11 NUniq=   11 SFac= 1.00D+00 NAtFMM=   60 NAOKFM=F Big=F
 Integral buffers will be    131072 words long.
 Raffenetti 2 integral format.
 Two-electron integral symmetry is turned on.
 Nuclear repulsion after empirical dispersion term =      407.4655940292 Hartrees.
 One-electron integrals computed using PRISM.
   1 Symmetry operations used in ECPInt.
 ECPInt:  NShTT=    1275 NPrTT=    5909 LenC2=    1253 LenP2D=    4469.
 LDataN:  DoStor=T MaxTD1= 7 Len=  274
 NBasis=   130 RedAO= T EigKep=  7.95D-03  NBF=   130
 NBsUse=   130 1.00D-06 EigRej= -1.00D+00 NBFU=   130
 Defaulting to unpruned grid for atomic number  78.
 Initial guess from the checkpoint file:  "cisplatin_opt_freq_m06.chk"
 B after Tr=     0.000000   -0.000000   -0.000000
         Rot=    0.999998   -0.000864   -0.000201    0.001489 Ang=  -0.20 deg.
 ExpMin= 1.50D-02 ExpMax= 2.52D+04 ExpMxC= 3.78D+03 IAcc=3 IRadAn=         5 AccDes= 0.00D+00
 Harris functional with IExCor= 1009 and IRadAn=       5 diagonalized for initial guess.
 HarFok:  IExCor= 1009 AccDes= 0.00D+00 IRadAn=         5 IDoV= 1 UseB2=F ITyADJ=14
 ICtDFT=  3500011 ScaDFX=  1.000000  1.000000  1.000000  1.000000
 Defaulting to unpruned grid for atomic number  78.
 FoFCou: FMM=F IPFlag=           0 FMFlag=      100000 FMFlg1=           0
         NFxFlg=           0 DoJE=T BraDBF=F KetDBF=T FulRan=T
         wScrn=  0.000000 ICntrl=       500 IOpCl=  0 I1Cent=   200000004 NGrid=           0
         NMat0=    1 NMatS0=      1 NMatT0=    0 NMatD0=    1 NMtDS0=    0 NMtDT0=    0
 Petite list used in FoFCou.
 Keep R1 ints in memory in canonical form, NReq=37571964.
 Requested convergence on RMS density matrix=1.00D-08 within 128 cycles.
 Requested convergence on MAX density matrix=1.00D-06.
 Requested convergence on             energy=1.00D-06.
 No special actions if energy rises.
 Defaulting to unpruned grid for atomic number  78.
 SCF Done:  E(RM062X) =  -1152.73107300     A.U. after   12 cycles
            NFock= 12  Conv=0.34D-08     -V/T= 2.0755
   1 Symmetry operations used in ECPInt.
 ECPInt:  NShTT=    1275 NPrTT=    5909 LenC2=    1253 LenP2D=    4469.
 LDataN:  DoStor=T MaxTD1= 8 Len=  415
 Calling FoFJK, ICntrl=      2127 FMM=F ISym2X=0 I1Cent= 0 IOpClX= 0 NMat=1 NMatS=1 NMatT=0.
 Defaulting to unpruned grid for atomic number  78.
 ***** Axes restored to original set *****
 -------------------------------------------------------------------
 Center     Atomic                   Forces (Hartrees/Bohr)
 Number     Number              X              Y              Z
 -------------------------------------------------------------------
      1       78          -0.000874791   -0.000759023    0.009722399
      2       17          -0.000153042    0.000185547   -0.001480398
      3       17           0.000233403   -0.000538355   -0.002776591
      4        7           0.000734046   -0.000814182   -0.004037166
      5        1           0.000053453   -0.000388339    0.000880136
      6        1          -0.000214464    0.001155760   -0.000651114
      7        7          -0.001132557    0.000669167   -0.002448472
      8        1           0.000758780   -0.000044749   -0.000721340
      9        1          -0.000006052   -0.000093025    0.000865969
     10        1          -0.000564925    0.001172198    0.000220873
     11        1           0.001166150   -0.000544998    0.000425705
 -------------------------------------------------------------------
 Cartesian Forces:  Max     0.009722399 RMS     0.002056522

 GradGradGradGradGradGradGradGradGradGradGradGradGradGradGradGradGradGrad
 Berny optimization.
 Using GEDIIS/GDIIS optimizer.
 FormGI is forming the generalized inverse of G from B-inverse, IUseBI=4.
 Internal  Forces:  Max     0.004784908 RMS     0.001464857
 Search for a local minimum.
 Step number   7 out of a maximum of   52
 All quantities printed in internal units (Hartrees-Bohrs-Radians)
 Mixed Optimization -- RFO/linear search
 Update second derivatives using D2CorX and points    1    2    3    5    4
                                                      7    6
 DE=  7.06D-04 DEPred=-3.70D-05 R=-1.91D+01
 Trust test=-1.91D+01 RLast= 1.66D-01 DXMaxT set to 1.59D-01
 ITU= -1  1 -1  1  1  1  0
 Use linear search instead of GDIIS.
     Eigenvalues ---    0.00230   0.00230   0.04754   0.05182   0.05234
     Eigenvalues ---    0.06141   0.07799   0.07966   0.09251   0.11481
     Eigenvalues ---    0.12619   0.13453   0.16000   0.16000   0.16439
     Eigenvalues ---    0.16506   0.16958   0.20392   0.21816   0.22015
     Eigenvalues ---    0.24504   0.47638   0.47676   0.47688   0.47690
     Eigenvalues ---    0.47694   0.47698
 RFO step:  Lambda=-1.12709828D-06 EMin= 2.30000193D-03
 Quartic linear search produced a step of -0.95353.
 Iteration  1 RMS(Cart)=  0.03355628 RMS(Int)=  0.00118653
 Iteration  2 RMS(Cart)=  0.00141209 RMS(Int)=  0.00002405
 Iteration  3 RMS(Cart)=  0.00000058 RMS(Int)=  0.00002405
 Variable       Old X    -DE/DX   Delta X   Delta X   Delta X     New X
                                 (Linear)    (Quad)   (Total)
    R1        4.38531   0.00013  -0.00232   0.00048  -0.00184   4.38348
    R2        4.38478   0.00039  -0.00211   0.00070  -0.00141   4.38337
    R3        4.00174   0.00101   0.00417   0.00030   0.00446   4.00620
    R4        4.00231   0.00074   0.00396   0.00003   0.00399   4.00630
    R5        1.91982   0.00059   0.00168   0.00031   0.00199   1.92180
    R6        1.91978   0.00098   0.00171   0.00031   0.00202   1.92180
    R7        1.93379   0.00071   0.00100   0.00042   0.00142   1.93521
    R8        1.91978   0.00091   0.00171   0.00030   0.00201   1.92180
    R9        1.91980   0.00067   0.00169   0.00031   0.00200   1.92179
   R10        1.93379   0.00070   0.00101   0.00041   0.00142   1.93520
    A1        1.65262   0.00053   0.00555   0.00111   0.00677   1.65938
    A2        1.45907   0.00030   0.00266  -0.00033   0.00238   1.46145
    A3        1.45921   0.00024   0.00267  -0.00055   0.00218   1.46139
    A4        1.70863  -0.00067  -0.00741  -0.00026  -0.00767   1.70096
    A5        1.99929  -0.00141  -0.00214   0.00032  -0.00182   1.99747
    A6        1.99879   0.00128  -0.00123   0.00024  -0.00098   1.99781
    A7        1.77149   0.00139   0.01531  -0.00050   0.01481   1.78630
    A8        1.89894   0.00010  -0.00006   0.00054   0.00048   1.89942
    A9        1.89331  -0.00052  -0.00599  -0.00038  -0.00637   1.88695
   A10        1.89332  -0.00090  -0.00588  -0.00040  -0.00628   1.88704
   A11        1.99872   0.00060  -0.00140   0.00021  -0.00118   1.99754
   A12        1.99946  -0.00076  -0.00200   0.00029  -0.00171   1.99775
   A13        1.77139   0.00139   0.01537  -0.00050   0.01486   1.78626
   A14        1.89894   0.00012  -0.00007   0.00057   0.00050   1.89944
   A15        1.89317  -0.00064  -0.00580  -0.00042  -0.00622   1.88695
   A16        1.89344  -0.00075  -0.00607  -0.00033  -0.00640   1.88704
   A17        3.16770  -0.00037  -0.00475  -0.00059  -0.00529   3.16242
   A18        3.16785  -0.00043  -0.00474  -0.00081  -0.00549   3.16235
   A19        3.09845   0.00248   0.04352  -0.00048   0.04303   3.14148
   A20        3.23015  -0.00478  -0.08845  -0.00010  -0.08855   3.14160
    D1        2.01245   0.00117   0.02431  -0.00076   0.02356   2.03600
    D2       -2.05914   0.00120   0.02118   0.00053   0.02170  -2.03744
    D3       -0.02346   0.00158   0.02302  -0.00015   0.02287  -0.00058
    D4       -1.08600  -0.00131  -0.01920  -0.00028  -0.01948  -1.10548
    D5        1.12559  -0.00128  -0.02234   0.00101  -0.02133   1.10426
    D6       -3.12191  -0.00090  -0.02049   0.00033  -0.02016   3.14112
    D7        2.07948  -0.00236  -0.04324  -0.00033  -0.04357   2.03591
    D8       -1.99201  -0.00233  -0.04643   0.00094  -0.04549  -2.03750
    D9        0.04407  -0.00272  -0.04513   0.00037  -0.04476  -0.00069
   D10       -1.15066   0.00243   0.04521  -0.00024   0.04497  -1.10569
   D11        1.06103   0.00245   0.04202   0.00104   0.04306   1.10409
   D12        3.09711   0.00206   0.04332   0.00047   0.04379   3.14090
         Item               Value     Threshold  Converged?
 Maximum Force            0.004785     0.000450     NO 
 RMS     Force            0.001465     0.000300     NO 
 Maximum Displacement     0.124946     0.001800     NO 
 RMS     Displacement     0.033405     0.001200     NO 
 Predicted change in Energy=-2.323519D-06
 GradGradGradGradGradGradGradGradGradGradGradGradGradGradGradGradGradGrad

                          Input orientation:                          
 ---------------------------------------------------------------------
 Center     Atomic      Atomic             Coordinates (Angstroms)
 Number     Number       Type             X           Y           Z
 ---------------------------------------------------------------------
      1         78           0       -0.167840   -0.149449   -0.000232
      2         17           0       -2.485204   -0.046804   -0.000473
      3         17           0       -0.065070   -2.466748   -0.000467
      4          7           0       -0.305709    1.966054   -0.000014
      5          1           0        0.081271    2.412948    0.827493
      6          1           0        0.082552    2.413519   -0.826608
      7          7           0        1.947712   -0.287340    0.000211
      8          1           0        2.394938    0.099724   -0.827074
      9          1           0        2.394856    0.100798    0.827035
     10          1           0       -1.318214    2.119521   -0.000691
     11          1           0        2.101124   -1.299850    0.000821
 ---------------------------------------------------------------------
                    Distance matrix (angstroms):
                    1          2          3          4          5
     1  Pt   0.000000
     2  Cl   2.319636   0.000000
     3  Cl   2.319577   3.422453   0.000000
     4  N    2.119991   2.966782   4.439330   0.000000
     5  H    2.704268   3.650028   4.951603   1.016974   0.000000
     6  H    2.704515   3.650898   4.951900   1.016970   1.654102
     7  N    2.120041   4.439437   2.966667   3.186800   3.385196
     8  H    2.704365   4.951821   3.649890   3.385367   3.666286
     9  H    2.704516   4.951923   3.650793   3.384707   3.270889
    10  H    2.543931   2.460656   4.754391   1.024069   1.652437
    11  H    2.543938   4.754422   2.460498   4.056966   4.306746
                    6          7          8          9         10
     6  H    0.000000
     7  N    3.384833   0.000000
     8  H    3.271204   1.016971   0.000000
     9  H    3.664692   1.016970   1.654110   0.000000
    10  H    1.652489   4.057000   4.306969   4.306653   0.000000
    11  H    4.306783   1.024066   1.652436   1.652490   4.835697
                   11
    11  H    0.000000
 Stoichiometry    Cl2H6N2Pt
 Framework group  C1[X(Cl2H6N2Pt)]
 Deg. of freedom    27
 Full point group                 C1      NOp   1
 Largest Abelian subgroup         C1      NOp   1
 Largest concise Abelian subgroup C1      NOp   1
                         Standard orientation:                         
 ---------------------------------------------------------------------
 Center     Atomic      Atomic             Coordinates (Angstroms)
 Number     Number       Type             X           Y           Z
 ---------------------------------------------------------------------
      1         78           0        0.000012    0.182794    0.000008
      2         17           0       -1.711374   -1.383051   -0.000233
      3         17           0        1.711079   -1.383312   -0.000227
      4          7           0       -1.593202    1.581377    0.000226
      5          1           0       -1.635499    2.171020    0.827734
      6          1           0       -1.634997    2.172329   -0.826367
      7          7           0        1.593598    1.581027    0.000451
      8          1           0        1.636207    2.170955   -0.826834
      9          1           0        1.635390    2.171656    0.827275
     10          1           0       -2.417738    0.974040   -0.000450
     11          1           0        2.417959    0.973458    0.001061
 ---------------------------------------------------------------------
 Rotational constants (GHZ):           2.1607272           1.6777282           0.9542542
 Basis read from rwf:  (5D, 7F)
 Pseudo-potential data read from rwf file.
 There are   137 symmetry adapted cartesian basis functions of A   symmetry.
 There are   130 symmetry adapted basis functions of A   symmetry.
   130 basis functions,   267 primitive gaussians,   137 cartesian basis functions
    36 alpha electrons       36 beta electrons
       nuclear repulsion energy       407.1013154671 Hartrees.
 NAtoms=   11 NActive=   11 NUniq=   11 SFac= 1.00D+00 NAtFMM=   60 NAOKFM=F Big=F
 Integral buffers will be    131072 words long.
 Raffenetti 2 integral format.
 Two-electron integral symmetry is turned on.
 Nuclear repulsion after empirical dispersion term =      407.1010590153 Hartrees.
 One-electron integrals computed using PRISM.
   1 Symmetry operations used in ECPInt.
 ECPInt:  NShTT=    1275 NPrTT=    5909 LenC2=    1252 LenP2D=    4464.
 LDataN:  DoStor=T MaxTD1= 7 Len=  274
 NBasis=   130 RedAO= T EigKep=  7.88D-03  NBF=   130
 NBsUse=   130 1.00D-06 EigRej= -1.00D+00 NBFU=   130
 Defaulting to unpruned grid for atomic number  78.
 Lowest energy guess from the checkpoint file:  "cisplatin_opt_freq_m06.chk"
 B after Tr=     0.000000    0.000000    0.000000
         Rot=    1.000000   -0.000133    0.000002   -0.000102 Ang=  -0.02 deg.
 B after Tr=    -0.000000    0.000000    0.000000
         Rot=    0.999998    0.000736    0.000201   -0.001591 Ang=   0.20 deg.
 Keep R1 ints in memory in canonical form, NReq=37571964.
 Requested convergence on RMS density matrix=1.00D-08 within 128 cycles.
 Requested convergence on MAX density matrix=1.00D-06.
 Requested convergence on             energy=1.00D-06.
 No special actions if energy rises.
 Defaulting to unpruned grid for atomic number  78.
 SCF Done:  E(RM062X) =  -1152.73178163     A.U. after    9 cycles
            NFock=  9  Conv=0.91D-08     -V/T= 2.0755
   1 Symmetry operations used in ECPInt.
 ECPInt:  NShTT=    1275 NPrTT=    5909 LenC2=    1252 LenP2D=    4464.
 LDataN:  DoStor=T MaxTD1= 8 Len=  415
 Calling FoFJK, ICntrl=      2127 FMM=F ISym2X=0 I1Cent= 0 IOpClX= 0 NMat=1 NMatS=1 NMatT=0.
 Defaulting to unpruned grid for atomic number  78.
 ***** Axes restored to original set *****
 -------------------------------------------------------------------
 Center     Atomic                   Forces (Hartrees/Bohr)
 Number     Number              X              Y              Z
 -------------------------------------------------------------------
      1       78           0.000106565    0.000103384    0.000004447
      2       17          -0.000041567    0.000004759   -0.000003948
      3       17          -0.000000274   -0.000059280    0.000001092
      4        7           0.000053441   -0.000068274    0.000006730
      5        1          -0.000007620   -0.000002874    0.000002991
      6        1          -0.000007770   -0.000007334   -0.000005532
      7        7          -0.000079349    0.000060756   -0.000005011
      8        1          -0.000003380   -0.000005492   -0.000004413
      9        1          -0.000005075   -0.000007767    0.000004053
     10        1          -0.000025917    0.000010234   -0.000001060
     11        1           0.000010947   -0.000028114    0.000000651
 -------------------------------------------------------------------
 Cartesian Forces:  Max     0.000106565 RMS     0.000037736

 GradGradGradGradGradGradGradGradGradGradGradGradGradGradGradGradGradGrad
 Berny optimization.
 Using GEDIIS/GDIIS optimizer.
 FormGI is forming the generalized inverse of G from B-inverse, IUseBI=4.
 Internal  Forces:  Max     0.000078025 RMS     0.000021717
 Search for a local minimum.
 Step number   8 out of a maximum of   52
 All quantities printed in internal units (Hartrees-Bohrs-Radians)
 Mixed Optimization -- En-DIIS/RFO-DIIS
 Update second derivatives using D2CorX and points    1    2    3    5    4
                                                      7    6    8
 DE= -2.28D-06 DEPred=-2.32D-06 R= 9.82D-01
 TightC=F SS=  1.41D+00  RLast= 8.61D-03 DXNew= 2.6740D-01 2.5824D-02
 Trust test= 9.82D-01 RLast= 8.61D-03 DXMaxT set to 1.59D-01
 ITU=  1 -1  1 -1  1  1  1  0
 Use linear search instead of GDIIS.
     Eigenvalues ---    0.00230   0.00230   0.04791   0.05316   0.05581
     Eigenvalues ---    0.06150   0.07727   0.07905   0.09623   0.12363
     Eigenvalues ---    0.12644   0.13696   0.16000   0.16000   0.16394
     Eigenvalues ---    0.16499   0.17141   0.20383   0.21312   0.22013
     Eigenvalues ---    0.24483   0.47053   0.47640   0.47688   0.47689
     Eigenvalues ---    0.47693   0.47703
 RFO step:  Lambda=-1.17124839D-07 EMin= 2.29934927D-03
 Quartic linear search produced a step of  0.01491.
 Iteration  1 RMS(Cart)=  0.00032783 RMS(Int)=  0.00000002
 Iteration  2 RMS(Cart)=  0.00000002 RMS(Int)=  0.00000002
 Variable       Old X    -DE/DX   Delta X   Delta X   Delta X     New X
                                 (Linear)    (Quad)   (Total)
    R1        4.38348   0.00004   0.00001   0.00018   0.00018   4.38366
    R2        4.38337   0.00006   0.00001   0.00026   0.00027   4.38364
    R3        4.00620  -0.00007   0.00000  -0.00046  -0.00046   4.00575
    R4        4.00630  -0.00008  -0.00000  -0.00051  -0.00051   4.00578
    R5        1.92180  -0.00000   0.00000  -0.00001  -0.00001   1.92180
    R6        1.92180  -0.00000   0.00000  -0.00001  -0.00001   1.92179
    R7        1.93521   0.00003   0.00001   0.00005   0.00006   1.93527
    R8        1.92180  -0.00000   0.00000  -0.00001  -0.00000   1.92179
    R9        1.92179  -0.00000   0.00000  -0.00001  -0.00001   1.92179
   R10        1.93520   0.00003   0.00001   0.00006   0.00006   1.93527
    A1        1.65938   0.00000   0.00001  -0.00000   0.00001   1.65939
    A2        1.46145   0.00001  -0.00001   0.00006   0.00005   1.46151
    A3        1.46139   0.00002  -0.00001   0.00016   0.00015   1.46154
    A4        1.70096  -0.00003   0.00000  -0.00021  -0.00021   1.70075
    A5        1.99747   0.00000   0.00001  -0.00002  -0.00001   1.99745
    A6        1.99781  -0.00001   0.00000  -0.00008  -0.00008   1.99773
    A7        1.78630   0.00001  -0.00002   0.00006   0.00004   1.78634
    A8        1.89942   0.00001   0.00001   0.00010   0.00011   1.89954
    A9        1.88695  -0.00000  -0.00000  -0.00002  -0.00002   1.88692
   A10        1.88704  -0.00000  -0.00000  -0.00005  -0.00005   1.88699
   A11        1.99754  -0.00000   0.00000  -0.00006  -0.00005   1.99748
   A12        1.99775  -0.00000   0.00001  -0.00005  -0.00004   1.99771
   A13        1.78626   0.00001  -0.00002   0.00007   0.00005   1.78631
   A14        1.89944   0.00001   0.00001   0.00009   0.00010   1.89954
   A15        1.88695  -0.00000  -0.00000  -0.00002  -0.00002   1.88693
   A16        1.88704  -0.00000  -0.00000  -0.00004  -0.00004   1.88701
   A17        3.16242  -0.00002  -0.00000  -0.00015  -0.00016   3.16226
   A18        3.16235  -0.00001  -0.00001  -0.00005  -0.00006   3.16229
   A19        3.14148   0.00001  -0.00004   0.00012   0.00009   3.14157
   A20        3.14160   0.00000   0.00006   0.00003   0.00009   3.14169
    D1        2.03600   0.00000  -0.00003   0.00008   0.00005   2.03605
    D2       -2.03744   0.00001  -0.00001   0.00013   0.00012  -2.03732
    D3       -0.00058   0.00000  -0.00002   0.00008   0.00006  -0.00053
    D4       -1.10548  -0.00001   0.00001  -0.00005  -0.00004  -1.10552
    D5        1.10426   0.00000   0.00003   0.00001   0.00004   1.10430
    D6        3.14112  -0.00000   0.00002  -0.00005  -0.00003   3.14109
    D7        2.03591  -0.00000   0.00003   0.00019   0.00021   2.03612
    D8       -2.03750   0.00000   0.00005   0.00022   0.00027  -2.03723
    D9       -0.00069   0.00000   0.00004   0.00020   0.00024  -0.00045
   D10       -1.10569  -0.00000  -0.00004   0.00016   0.00012  -1.10557
   D11        1.10409   0.00000  -0.00002   0.00020   0.00018   1.10427
   D12        3.14090  -0.00000  -0.00002   0.00017   0.00015   3.14104
         Item               Value     Threshold  Converged?
 Maximum Force            0.000078     0.000450     YES
 RMS     Force            0.000022     0.000300     YES
 Maximum Displacement     0.000800     0.001800     YES
 RMS     Displacement     0.000328     0.001200     YES
 Predicted change in Energy=-5.905602D-08
 Optimization completed.
    -- Stationary point found.
                           ----------------------------
                           !   Optimized Parameters   !
                           ! (Angstroms and Degrees)  !
 --------------------------                            --------------------------
 ! Name  Definition              Value          Derivative Info.                !
 --------------------------------------------------------------------------------
 ! R1    R(1,2)                  2.3196         -DE/DX =    0.0                 !
 ! R2    R(1,3)                  2.3196         -DE/DX =    0.0001              !
 ! R3    R(1,4)                  2.12           -DE/DX =   -0.0001              !
 ! R4    R(1,7)                  2.12           -DE/DX =   -0.0001              !
 ! R5    R(4,5)                  1.017          -DE/DX =    0.0                 !
 ! R6    R(4,6)                  1.017          -DE/DX =    0.0                 !
 ! R7    R(4,10)                 1.0241         -DE/DX =    0.0                 !
 ! R8    R(7,8)                  1.017          -DE/DX =    0.0                 !
 ! R9    R(7,9)                  1.017          -DE/DX =    0.0                 !
 ! R10   R(7,11)                 1.0241         -DE/DX =    0.0                 !
 ! A1    A(2,1,3)               95.0756         -DE/DX =    0.0                 !
 ! A2    A(2,1,4)               83.7351         -DE/DX =    0.0                 !
 ! A3    A(3,1,7)               83.7314         -DE/DX =    0.0                 !
 ! A4    A(4,1,7)               97.458          -DE/DX =    0.0                 !
 ! A5    A(1,4,5)              114.4464         -DE/DX =    0.0                 !
 ! A6    A(1,4,6)              114.4661         -DE/DX =    0.0                 !
 ! A7    A(1,4,10)             102.3475         -DE/DX =    0.0                 !
 ! A8    A(5,4,6)              108.829          -DE/DX =    0.0                 !
 ! A9    A(5,4,10)             108.114          -DE/DX =    0.0                 !
 ! A10   A(6,4,10)             108.1193         -DE/DX =    0.0                 !
 ! A11   A(1,7,8)              114.4505         -DE/DX =    0.0                 !
 ! A12   A(1,7,9)              114.4625         -DE/DX =    0.0                 !
 ! A13   A(1,7,11)             102.345          -DE/DX =    0.0                 !
 ! A14   A(8,7,9)              108.8301         -DE/DX =    0.0                 !
 ! A15   A(8,7,11)             108.1144         -DE/DX =    0.0                 !
 ! A16   A(9,7,11)             108.1197         -DE/DX =    0.0                 !
 ! A17   L(2,1,7,4,-1)         181.193          -DE/DX =    0.0                 !
 ! A18   L(3,1,4,7,-1)         181.1894         -DE/DX =    0.0                 !
 ! A19   L(2,1,7,4,-2)         179.9938         -DE/DX =    0.0                 !
 ! A20   L(3,1,4,7,-2)         180.0003         -DE/DX =    0.0                 !
 ! D1    D(2,1,4,5)            116.6543         -DE/DX =    0.0                 !
 ! D2    D(2,1,4,6)           -116.7367         -DE/DX =    0.0                 !
 ! D3    D(2,1,4,10)            -0.0334         -DE/DX =    0.0                 !
 ! D4    D(7,1,4,5)            -63.3395         -DE/DX =    0.0                 !
 ! D5    D(7,1,4,6)             63.2695         -DE/DX =    0.0                 !
 ! D6    D(7,1,4,10)           179.9728         -DE/DX =    0.0                 !
 ! D7    D(3,1,7,8)            116.649          -DE/DX =    0.0                 !
 ! D8    D(3,1,7,9)           -116.74           -DE/DX =    0.0                 !
 ! D9    D(3,1,7,11)            -0.0395         -DE/DX =    0.0                 !
 ! D10   D(4,1,7,8)            -63.3513         -DE/DX =    0.0                 !
 ! D11   D(4,1,7,9)             63.2596         -DE/DX =    0.0                 !
 ! D12   D(4,1,7,11)           179.9602         -DE/DX =    0.0                 !
 --------------------------------------------------------------------------------
 GradGradGradGradGradGradGradGradGradGradGradGradGradGradGradGradGradGrad

                          Input orientation:                          
 ---------------------------------------------------------------------
 Center     Atomic      Atomic             Coordinates (Angstroms)
 Number     Number       Type             X           Y           Z
 ---------------------------------------------------------------------
      1         78           0       -0.167840   -0.149449   -0.000232
      2         17           0       -2.485204   -0.046804   -0.000473
      3         17           0       -0.065070   -2.466748   -0.000467
      4          7           0       -0.305709    1.966054   -0.000014
      5          1           0        0.081271    2.412948    0.827493
      6          1           0        0.082552    2.413519   -0.826608
      7          7           0        1.947712   -0.287340    0.000211
      8          1           0        2.394938    0.099724   -0.827074
      9          1           0        2.394856    0.100798    0.827035
     10          1           0       -1.318214    2.119521   -0.000691
     11          1           0        2.101124   -1.299850    0.000821
 ---------------------------------------------------------------------
                    Distance matrix (angstroms):
                    1          2          3          4          5
     1  Pt   0.000000
     2  Cl   2.319636   0.000000
     3  Cl   2.319577   3.422453   0.000000
     4  N    2.119991   2.966782   4.439330   0.000000
     5  H    2.704268   3.650028   4.951603   1.016974   0.000000
     6  H    2.704515   3.650898   4.951900   1.016970   1.654102
     7  N    2.120041   4.439437   2.966667   3.186800   3.385196
     8  H    2.704365   4.951821   3.649890   3.385367   3.666286
     9  H    2.704516   4.951923   3.650793   3.384707   3.270889
    10  H    2.543931   2.460656   4.754391   1.024069   1.652437
    11  H    2.543938   4.754422   2.460498   4.056966   4.306746
                    6          7          8          9         10
     6  H    0.000000
     7  N    3.384833   0.000000
     8  H    3.271204   1.016971   0.000000
     9  H    3.664692   1.016970   1.654110   0.000000
    10  H    1.652489   4.057000   4.306969   4.306653   0.000000
    11  H    4.306783   1.024066   1.652436   1.652490   4.835697
                   11
    11  H    0.000000
 Stoichiometry    Cl2H6N2Pt
 Framework group  C1[X(Cl2H6N2Pt)]
 Deg. of freedom    27
 Full point group                 C1      NOp   1
 Largest Abelian subgroup         C1      NOp   1
 Largest concise Abelian subgroup C1      NOp   1
                         Standard orientation:                         
 ---------------------------------------------------------------------
 Center     Atomic      Atomic             Coordinates (Angstroms)
 Number     Number       Type             X           Y           Z
 ---------------------------------------------------------------------
      1         78           0        0.000012    0.182794    0.000008
      2         17           0       -1.711374   -1.383051   -0.000233
      3         17           0        1.711079   -1.383312   -0.000227
      4          7           0       -1.593202    1.581377    0.000226
      5          1           0       -1.635499    2.171020    0.827734
      6          1           0       -1.634997    2.172329   -0.826367
      7          7           0        1.593598    1.581027    0.000451
      8          1           0        1.636207    2.170955   -0.826834
      9          1           0        1.635390    2.171656    0.827275
     10          1           0       -2.417738    0.974040   -0.000450
     11          1           0        2.417959    0.973458    0.001061
 ---------------------------------------------------------------------
 Rotational constants (GHZ):           2.1607272           1.6777282           0.9542542

 **********************************************************************

            Population analysis using the SCF Density.

 **********************************************************************

 Orbital symmetries:
       Occupied  (A) (A) (A) (A) (A) (A) (A) (A) (A) (A) (A) (A)
                 (A) (A) (A) (A) (A) (A) (A) (A) (A) (A) (A) (A)
                 (A) (A) (A) (A) (A) (A) (A) (A) (A) (A) (A) (A)
       Virtual   (A) (A) (A) (A) (A) (A) (A) (A) (A) (A) (A) (A)
                 (A) (A) (A) (A) (A) (A) (A) (A) (A) (A) (A) (A)
                 (A) (A) (A) (A) (A) (A) (A) (A) (A) (A) (A) (A)
                 (A) (A) (A) (A) (A) (A) (A) (A) (A) (A) (A) (A)
                 (A) (A) (A) (A) (A) (A) (A) (A) (A) (A) (A) (A)
                 (A) (A) (A) (A) (A) (A) (A) (A) (A) (A) (A) (A)
                 (A) (A) (A) (A) (A) (A) (A) (A) (A) (A) (A) (A)
                 (A) (A) (A) (A) (A) (A) (A) (A) (A) (A)
 The electronic state is 1-A.
 Alpha  occ. eigenvalues -- -102.57405-102.57405 -14.84419 -14.84419  -9.73604
 Alpha  occ. eigenvalues --   -9.73604  -7.45661  -7.45659  -7.45235  -7.45234
 Alpha  occ. eigenvalues --   -7.45221  -7.45221  -4.10229  -2.32244  -2.31830
 Alpha  occ. eigenvalues --   -2.28220  -1.05190  -1.04797  -0.83841  -0.83131
 Alpha  occ. eigenvalues --   -0.62941  -0.62918  -0.62561  -0.61661  -0.51831
 Alpha  occ. eigenvalues --   -0.50643  -0.40248  -0.37867  -0.37754  -0.37400
 Alpha  occ. eigenvalues --   -0.37125  -0.31262  -0.31201  -0.30085  -0.30010
 Alpha  occ. eigenvalues --   -0.28849
 Alpha virt. eigenvalues --   -0.04053  -0.01292   0.01562   0.01683   0.04098
 Alpha virt. eigenvalues --    0.10273   0.10934   0.11843   0.12154   0.12949
 Alpha virt. eigenvalues --    0.13785   0.14048   0.17428   0.19296   0.19564
 Alpha virt. eigenvalues --    0.21126   0.21918   0.22190   0.27683   0.33778
 Alpha virt. eigenvalues --    0.34279   0.54082   0.54284   0.57373   0.58128
 Alpha virt. eigenvalues --    0.58973   0.62334   0.63847   0.66735   0.67518
 Alpha virt. eigenvalues --    0.73093   0.74761   0.77266   0.79695   0.80547
 Alpha virt. eigenvalues --    0.82857   0.83791   0.85742   0.86657   0.88330
 Alpha virt. eigenvalues --    0.88721   0.90057   0.92079   0.94782   1.01171
 Alpha virt. eigenvalues --    1.01452   1.01593   1.03025   1.03726   1.07961
 Alpha virt. eigenvalues --    1.09249   1.09418   1.09669   1.12287   1.20255
 Alpha virt. eigenvalues --    1.21973   1.32923   1.38478   1.41846   1.43248
 Alpha virt. eigenvalues --    1.49090   1.52034   1.57631   1.66853   1.67411
 Alpha virt. eigenvalues --    2.03885   2.03905   2.06176   2.13381   2.23248
 Alpha virt. eigenvalues --    2.23598   2.24632   2.25456   2.34619   2.35428
 Alpha virt. eigenvalues --    2.36634   2.37432   2.62729   2.73795   2.76272
 Alpha virt. eigenvalues --    2.89117   2.90053   2.90064   2.91066   3.23980
 Alpha virt. eigenvalues --    3.24023   3.36252   3.36300   3.36341   3.40407
 Alpha virt. eigenvalues --   46.09435  46.18370  46.22865 115.10448
          Condensed to atoms (all electrons):
               1          2          3          4          5          6
     1  Pt  17.323444   0.272109   0.272097   0.060967  -0.010889  -0.010878
     2  Cl   0.272109  17.041102  -0.003470  -0.041946   0.000314   0.000318
     3  Cl   0.272097  -0.003470  17.041107  -0.003530   0.000041   0.000041
     4  N    0.060967  -0.041946  -0.003530   6.794736   0.334421   0.334420
     5  H   -0.010889   0.000314   0.000041   0.334421   0.375173  -0.022829
     6  H   -0.010878   0.000318   0.000041   0.334420  -0.022829   0.375186
     7  N    0.060996  -0.003529  -0.041963  -0.001848  -0.000443  -0.000444
     8  H   -0.010886   0.000041   0.000314  -0.000443   0.000072   0.000111
     9  H   -0.010878   0.000041   0.000319  -0.000444   0.000111   0.000072
    10  H   -0.006691   0.025487   0.000100   0.313595  -0.017019  -0.017013
    11  H   -0.006693   0.000100   0.025497   0.000178  -0.000014  -0.000014
               7          8          9         10         11
     1  Pt   0.060996  -0.010886  -0.010878  -0.006691  -0.006693
     2  Cl  -0.003529   0.000041   0.000041   0.025487   0.000100
     3  Cl  -0.041963   0.000314   0.000319   0.000100   0.025497
     4  N   -0.001848  -0.000443  -0.000444   0.313595   0.000178
     5  H   -0.000443   0.000072   0.000111  -0.017019  -0.000014
     6  H   -0.000444   0.000111   0.000072  -0.017013  -0.000014
     7  N    6.794723   0.334419   0.334419   0.000178   0.313589
     8  H    0.334419   0.375168  -0.022828  -0.000014  -0.017018
     9  H    0.334419  -0.022828   0.375190  -0.000014  -0.017012
    10  H    0.000178  -0.000014  -0.000014   0.336460   0.000001
    11  H    0.313589  -0.017018  -0.017012   0.000001   0.336462
 Mulliken charges:
               1
     1  Pt   0.067303
     2  Cl  -0.290568
     3  Cl  -0.290553
     4  N   -0.790107
     5  H    0.341060
     6  H    0.341028
     7  N   -0.790099
     8  H    0.341061
     9  H    0.341023
    10  H    0.364929
    11  H    0.364923
 Sum of Mulliken charges =  -0.00000
 Mulliken charges with hydrogens summed into heavy atoms:
               1
     1  Pt   0.067303
     2  Cl  -0.290568
     3  Cl  -0.290553
     4  N    0.256910
     7  N    0.256908
 Electronic spatial extent (au):  <R**2>=           1137.2717
 Charge=             -0.0000 electrons
 Dipole moment (field-independent basis, Debye):
    X=              0.0014    Y=             11.6077    Z=              0.0024  Tot=             11.6077
 Quadrupole moment (field-independent basis, Debye-Ang):
   XX=            -58.6211   YY=            -55.2966   ZZ=            -62.9514
   XY=             -0.0001   XZ=              0.0005   YZ=              0.0020
 Traceless Quadrupole moment (field-independent basis, Debye-Ang):
   XX=              0.3353   YY=              3.6598   ZZ=             -3.9951
   XY=             -0.0001   XZ=              0.0005   YZ=              0.0020
 Octapole moment (field-independent basis, Debye-Ang**2):
  XXX=              0.0155  YYY=             73.5671  ZZZ=              0.0089  XYY=             -0.0016
  XXY=             46.6262  XXZ=              0.0083  XZZ=              0.0022  YZZ=             19.8422
  YYZ=              0.0061  XYZ=             -0.0008
 Hexadecapole moment (field-independent basis, Debye-Ang**3):
 XXXX=           -735.9031 YYYY=           -541.2377 ZZZZ=            -85.8097 XXXY=              0.0042
 XXXZ=              0.0030 YYYX=             -0.0031 YYYZ=             -0.0441 ZZZX=             -0.0157
 ZZZY=             -0.0379 XXYY=           -200.8664 XXZZ=           -140.0187 YYZZ=            -98.9818
 XXYZ=             -0.0127 YYXZ=             -0.0020 ZZXY=              0.0017
 N-N= 4.071010590153D+02 E-N=-3.517250583373D+03  KE= 1.071779257994D+03
 Merz-Kollman atomic radii used.
 Read replacement radii for each type of atom:
 Rad(78) =   2.320000000000D+00
 Atom Element Radius
    1    78    2.32
    2    17    1.70
    3    17    1.70
    4     7    1.50
    5     1    1.20
    6     1    1.20
    7     7    1.50
    8     1    1.20
    9     1    1.20
   10     1    1.20
   11     1    1.20

 **********************************************************************

            Electrostatic Properties Using The SCF Density.

 **********************************************************************

       Atomic Center    1 is at   0.000012  0.182794  0.000008
       Atomic Center    2 is at  -1.711374 -1.383051 -0.000233
       Atomic Center    3 is at   1.711079 -1.383312 -0.000227
       Atomic Center    4 is at  -1.593202  1.581377  0.000226
       Atomic Center    5 is at  -1.635499  2.171020  0.827734
       Atomic Center    6 is at  -1.634997  2.172329 -0.826367
       Atomic Center    7 is at   1.593598  1.581027  0.000451
       Atomic Center    8 is at   1.636207  2.170955 -0.826834
       Atomic Center    9 is at   1.635390  2.171656  0.827275
       Atomic Center   10 is at  -2.417738  0.974040 -0.000450
       Atomic Center   11 is at   2.417959  0.973458  0.001061
     918 points will be used for fitting atomic charges
 Fitting point charges to electrostatic potential
 Charges from ESP fit, RMS=   0.00184 RRMS=   0.04652:
 ESP charges:
               1
     1  Pt   0.025057
     2  Cl  -0.340721
     3  Cl  -0.339962
     4  N   -0.655298
     5  H    0.342963
     6  H    0.342996
     7  N   -0.629313
     8  H    0.337334
     9  H    0.337369
    10  H    0.294840
    11  H    0.284735
 Sum of ESP charges =  -0.00000
 ESP charges with hydrogens summed into heavy atoms:
               1
     1  Pt   0.025057
     2  Cl  -0.340721
     3  Cl  -0.339962
     4  N    0.325501
     7  N    0.330126
 Charge=  -0.00000 Dipole=     0.0007    11.6905     0.0025 Tot=    11.6905
 -----------------------------------------------------------------

              Electrostatic Properties (Atomic Units)

 -----------------------------------------------------------------
    Center     Electric         -------- Electric Field --------
               Potential          X             Y             Z
 -----------------------------------------------------------------
    1 Atom    -14.631332
    2 Atom    -64.496297
    3 Atom    -64.496294
    4 Atom    -18.268911
    5 Atom     -0.970150
    6 Atom     -0.970145
    7 Atom    -18.268916
    8 Atom     -0.970153
    9 Atom     -0.970147
   10 Atom     -0.976291
   11 Atom     -0.976295
 -----------------------------------------------------------------
 Update MM charges using ESP Charges.
 Unable to Open any file for archive entry.
 1\1\GINC-D32CEPYC185\FOpt\RM062X\GenECP\Cl2H6N2Pt1\MFARRUGI\12-Sep-202
 4\0\\# opt freq=noraman m062x/genecp empiricaldispersion=gd3 pop=(read
 radii,esp,saveesp)\\Cisplatin Opt Freq\\0,1\Pt,-0.1678403025,-0.149449
 0625,-0.0002320589\Cl,-2.4852041724,-0.0468037965,-0.0004733137\Cl,-0.
 0650695467,-2.4667484759,-0.0004671423\N,-0.305709142,1.9660544567,-0.
 0000141749\H,0.0812714411,2.4129484182,0.8274932331\H,0.0825518757,2.4
 135193638,-0.8266078216\N,1.9477117064,-0.2873399635,0.0002108933\H,2.
 3949379982,0.0997242174,-0.8270743863\H,2.3948562737,0.1007982947,0.82
 70348836\H,-1.3182139573,2.1195206397,-0.0006908778\H,2.1011238763,-1.
 2998495426,0.0008207656\\Version=ES64L-G16RevC.01\State=1-A\HF=-1152.7
 317816\RMSD=9.079e-09\RMSF=3.774e-05\Dipole=3.2292469,3.2292274,0.0009
 542\Quadrupole=1.4847627,1.4854693,-2.9702321,1.2358402,0.0013484,0.00
 07765\PG=C01 [X(Cl2H6N2Pt1)]\\@
 The archive entry for this job was punched.


 THERE ARE PEOPLE SO ADDICTED TO EXAGERATING THEY
 CAN'T TELL THE TRUTH WITHOUT LYING. -- FORTUNE COOKIE
 Job cpu time:       0 days  0 hours  7 minutes 43.5 seconds.
 Elapsed time:       0 days  0 hours  7 minutes 45.5 seconds.
 File lengths (MBytes):  RWF=     14 Int=      0 D2E=      0 Chk=      2 Scr=      1
 Normal termination of Gaussian 16 at Thu Sep 12 11:36:16 2024.
 Link1:  Proceeding to internal job step number  2.
 ------------------------------------------------------------------
 #N Geom=AllCheck Guess=TCheck SCRF=Check GenChk RM062X/GenECP Freq
 ------------------------------------------------------------------
 1/10=4,29=7,30=1,38=1,40=1/1,3;
 2/12=2,40=1/2;
 3/5=7,6=2,11=2,14=-4,16=1,17=8,25=1,30=1,70=2,71=2,74=-55,82=7,116=1,124=31,140=1/1,2,3;
 4/5=101/1;
 5/5=2,38=6,98=1/2;
 8/6=4,10=90,11=11/1;
 11/6=1,8=1,9=11,15=111,16=1/1,2,10;
 10/6=1/2;
 6/7=2,8=2,9=2,10=2,20=100,28=1/1;
 7/8=1,10=1,25=1/1,2,3,16;
 1/10=4,30=1/3;
 99//99;
 Structure from the checkpoint file:  "cisplatin_opt_freq_m06.chk"
 ------------------
 Cisplatin Opt Freq
 ------------------
 Charge =  0 Multiplicity = 1
 Redundant internal coordinates found in file.  (old form).
 Pt,0,-0.1678403025,-0.1494490625,-0.0002320589
 Cl,0,-2.4852041724,-0.0468037965,-0.0004733137
 Cl,0,-0.0650695467,-2.4667484759,-0.0004671423
 N,0,-0.305709142,1.9660544567,-0.0000141749
 H,0,0.0812714411,2.4129484182,0.8274932331
 H,0,0.0825518757,2.4135193638,-0.8266078216
 N,0,1.9477117064,-0.2873399635,0.0002108933
 H,0,2.3949379982,0.0997242174,-0.8270743863
 H,0,2.3948562737,0.1007982947,0.8270348836
 H,0,-1.3182139573,2.1195206397,-0.0006908778
 H,0,2.1011238763,-1.2998495426,0.0008207656
 Recover connectivity data from disk.
 MM Charge=             -0.0000 electrons
 MM Dipole moment (Debye):
    X=              8.2659    Y=              8.2669    Z=              0.0025  Tot=             11.6905
 MM Quadrupole moment (Debye-Ang):
   XX=              5.2357   YY=              5.5404   ZZ=              4.4704
   XY=             -3.1285   XZ=             -0.0011   YZ=             -0.0013
 MM Traceless Quadrupole moment (Debye-Ang):
   XX=              0.1535   YY=              0.4582   ZZ=             -0.6118
   XY=             -3.1285   XZ=             -0.0011   YZ=             -0.0013
 MM Octapole moment (Debye-Ang**2):
  XXX=             56.8341  YYY=             57.4503  ZZZ=              0.0029  XYY=              2.0068
  XXY=              2.4908  XXZ=              0.0053  XZZ=              5.4934  YZZ=              5.6609
  YYZ=              0.0065  XYZ=             -0.0003
 MM Hexadecapole moment (Debye-Ang**3):
 XXXX=             31.5837 YYYY=             36.7226 ZZZZ=              3.0578 XXXY=            -13.4805
 XXXZ=             -0.0048 YYYX=            -14.4286 YYYZ=             -0.0178 ZZZX=             -0.0011
 ZZZY=              0.0075 XXYY=             19.4242 XXZZ=             12.7292 YYZZ=             13.1471
 XXYZ=             -0.0020 YYXZ=              0.0002 ZZXY=              0.9778

 GradGradGradGradGradGradGradGradGradGradGradGradGradGradGradGradGradGrad
 Berny optimization.
 Initialization pass.
                           ----------------------------
                           !    Initial Parameters    !
                           ! (Angstroms and Degrees)  !
 --------------------------                            --------------------------
 ! Name  Definition              Value          Derivative Info.                !
 --------------------------------------------------------------------------------
 ! R1    R(1,2)                  2.3196         calculate D2E/DX2 analytically  !
 ! R2    R(1,3)                  2.3196         calculate D2E/DX2 analytically  !
 ! R3    R(1,4)                  2.12           calculate D2E/DX2 analytically  !
 ! R4    R(1,7)                  2.12           calculate D2E/DX2 analytically  !
 ! R5    R(4,5)                  1.017          calculate D2E/DX2 analytically  !
 ! R6    R(4,6)                  1.017          calculate D2E/DX2 analytically  !
 ! R7    R(4,10)                 1.0241         calculate D2E/DX2 analytically  !
 ! R8    R(7,8)                  1.017          calculate D2E/DX2 analytically  !
 ! R9    R(7,9)                  1.017          calculate D2E/DX2 analytically  !
 ! R10   R(7,11)                 1.0241         calculate D2E/DX2 analytically  !
 ! A1    A(2,1,3)               95.0756         calculate D2E/DX2 analytically  !
 ! A2    A(2,1,4)               83.7351         calculate D2E/DX2 analytically  !
 ! A3    A(3,1,7)               83.7314         calculate D2E/DX2 analytically  !
 ! A4    A(4,1,7)               97.458          calculate D2E/DX2 analytically  !
 ! A5    A(1,4,5)              114.4464         calculate D2E/DX2 analytically  !
 ! A6    A(1,4,6)              114.4661         calculate D2E/DX2 analytically  !
 ! A7    A(1,4,10)             102.3475         calculate D2E/DX2 analytically  !
 ! A8    A(5,4,6)              108.829          calculate D2E/DX2 analytically  !
 ! A9    A(5,4,10)             108.114          calculate D2E/DX2 analytically  !
 ! A10   A(6,4,10)             108.1193         calculate D2E/DX2 analytically  !
 ! A11   A(1,7,8)              114.4505         calculate D2E/DX2 analytically  !
 ! A12   A(1,7,9)              114.4625         calculate D2E/DX2 analytically  !
 ! A13   A(1,7,11)             102.345          calculate D2E/DX2 analytically  !
 ! A14   A(8,7,9)              108.8301         calculate D2E/DX2 analytically  !
 ! A15   A(8,7,11)             108.1144         calculate D2E/DX2 analytically  !
 ! A16   A(9,7,11)             108.1197         calculate D2E/DX2 analytically  !
 ! A17   L(2,1,7,4,-1)         181.193          calculate D2E/DX2 analytically  !
 ! A18   L(3,1,4,7,-1)         181.1894         calculate D2E/DX2 analytically  !
 ! A19   L(2,1,7,4,-2)         179.9938         calculate D2E/DX2 analytically  !
 ! A20   L(3,1,4,7,-2)         180.0003         calculate D2E/DX2 analytically  !
 ! D1    D(2,1,4,5)            116.6543         calculate D2E/DX2 analytically  !
 ! D2    D(2,1,4,6)           -116.7367         calculate D2E/DX2 analytically  !
 ! D3    D(2,1,4,10)            -0.0334         calculate D2E/DX2 analytically  !
 ! D4    D(7,1,4,5)            -63.3395         calculate D2E/DX2 analytically  !
 ! D5    D(7,1,4,6)             63.2695         calculate D2E/DX2 analytically  !
 ! D6    D(7,1,4,10)           179.9728         calculate D2E/DX2 analytically  !
 ! D7    D(3,1,7,8)            116.649          calculate D2E/DX2 analytically  !
 ! D8    D(3,1,7,9)           -116.74           calculate D2E/DX2 analytically  !
 ! D9    D(3,1,7,11)            -0.0395         calculate D2E/DX2 analytically  !
 ! D10   D(4,1,7,8)            -63.3513         calculate D2E/DX2 analytically  !
 ! D11   D(4,1,7,9)             63.2596         calculate D2E/DX2 analytically  !
 ! D12   D(4,1,7,11)           179.9602         calculate D2E/DX2 analytically  !
 --------------------------------------------------------------------------------
 Trust Radius=3.00D-01 FncErr=1.00D-07 GrdErr=1.00D-07 EigMax=2.50D+02 EigMin=1.00D-04
 Number of steps in this run=      2 maximum allowed number of steps=      2.
 GradGradGradGradGradGradGradGradGradGradGradGradGradGradGradGradGradGrad

                          Input orientation:                          
 ---------------------------------------------------------------------
 Center     Atomic      Atomic             Coordinates (Angstroms)
 Number     Number       Type             X           Y           Z
 ---------------------------------------------------------------------
      1         78           0       -0.167840   -0.149449   -0.000232
      2         17           0       -2.485204   -0.046804   -0.000473
      3         17           0       -0.065070   -2.466748   -0.000467
      4          7           0       -0.305709    1.966054   -0.000014
      5          1           0        0.081271    2.412948    0.827493
      6          1           0        0.082552    2.413519   -0.826608
      7          7           0        1.947712   -0.287340    0.000211
      8          1           0        2.394938    0.099724   -0.827074
      9          1           0        2.394856    0.100798    0.827035
     10          1           0       -1.318214    2.119521   -0.000691
     11          1           0        2.101124   -1.299850    0.000821
 ---------------------------------------------------------------------
                    Distance matrix (angstroms):
                    1          2          3          4          5
     1  Pt   0.000000
     2  Cl   2.319636   0.000000
     3  Cl   2.319577   3.422453   0.000000
     4  N    2.119991   2.966782   4.439330   0.000000
     5  H    2.704268   3.650028   4.951603   1.016974   0.000000
     6  H    2.704515   3.650898   4.951900   1.016970   1.654102
     7  N    2.120041   4.439437   2.966667   3.186800   3.385196
     8  H    2.704365   4.951821   3.649890   3.385367   3.666286
     9  H    2.704516   4.951923   3.650793   3.384707   3.270889
    10  H    2.543931   2.460656   4.754391   1.024069   1.652437
    11  H    2.543938   4.754422   2.460498   4.056966   4.306746
                    6          7          8          9         10
     6  H    0.000000
     7  N    3.384833   0.000000
     8  H    3.271204   1.016971   0.000000
     9  H    3.664692   1.016970   1.654110   0.000000
    10  H    1.652489   4.057000   4.306969   4.306653   0.000000
    11  H    4.306783   1.024066   1.652436   1.652490   4.835697
                   11
    11  H    0.000000
 Stoichiometry    Cl2H6N2Pt
 Framework group  C1[X(Cl2H6N2Pt)]
 Deg. of freedom    27
 Full point group                 C1      NOp   1
 Largest Abelian subgroup         C1      NOp   1
 Largest concise Abelian subgroup C1      NOp   1
                         Standard orientation:                         
 ---------------------------------------------------------------------
 Center     Atomic      Atomic             Coordinates (Angstroms)
 Number     Number       Type             X           Y           Z
 ---------------------------------------------------------------------
      1         78           0        0.000012    0.182794    0.000008
      2         17           0       -1.711374   -1.383051   -0.000233
      3         17           0        1.711079   -1.383312   -0.000227
      4          7           0       -1.593202    1.581377    0.000226
      5          1           0       -1.635499    2.171020    0.827734
      6          1           0       -1.634997    2.172329   -0.826367
      7          7           0        1.593598    1.581027    0.000451
      8          1           0        1.636207    2.170955   -0.826834
      9          1           0        1.635390    2.171656    0.827275
     10          1           0       -2.417738    0.974040   -0.000450
     11          1           0        2.417959    0.973458    0.001061
 ---------------------------------------------------------------------
 Rotational constants (GHZ):           2.1607272           1.6777282           0.9542542
 Basis read from chk: "cisplatin_opt_freq_m06.chk" (5D, 7F)
 Pseudo-potential data read from chk file.
 There are   137 symmetry adapted cartesian basis functions of A   symmetry.
 There are   130 symmetry adapted basis functions of A   symmetry.
   130 basis functions,   267 primitive gaussians,   137 cartesian basis functions
    36 alpha electrons       36 beta electrons
       nuclear repulsion energy       407.1013154671 Hartrees.
 NAtoms=   11 NActive=   11 NUniq=   11 SFac= 1.00D+00 NAtFMM=   60 NAOKFM=F Big=F
 Integral buffers will be    131072 words long.
 Raffenetti 2 integral format.
 Two-electron integral symmetry is turned on.
 Nuclear repulsion after empirical dispersion term =      407.1010590153 Hartrees.
 One-electron integrals computed using PRISM.
   1 Symmetry operations used in ECPInt.
 ECPInt:  NShTT=    1275 NPrTT=    5909 LenC2=    1252 LenP2D=    4464.
 LDataN:  DoStor=T MaxTD1= 7 Len=  274
 NBasis=   130 RedAO= T EigKep=  7.88D-03  NBF=   130
 NBsUse=   130 1.00D-06 EigRej= -1.00D+00 NBFU=   130
 Defaulting to unpruned grid for atomic number  78.
 Initial guess from the checkpoint file:  "cisplatin_opt_freq_m06.chk"
 B after Tr=    -0.000000   -0.000000    0.000000
         Rot=    1.000000    0.000000    0.000000    0.000000 Ang=   0.00 deg.
 Keep R1 ints in memory in canonical form, NReq=37571964.
 Requested convergence on RMS density matrix=1.00D-08 within 128 cycles.
 Requested convergence on MAX density matrix=1.00D-06.
 Requested convergence on             energy=1.00D-06.
 No special actions if energy rises.
 Defaulting to unpruned grid for atomic number  78.
 SCF Done:  E(RM062X) =  -1152.73178163     A.U. after    1 cycles
            NFock=  1  Conv=0.17D-08     -V/T= 2.0755
 DoSCS=F DFT=T ScalE2(SS,OS)=  1.000000  1.000000
 Range of M.O.s used for correlation:     1   130
 NBasis=   130 NAE=    36 NBE=    36 NFC=     0 NFV=     0
 NROrb=    130 NOA=    36 NOB=    36 NVA=    94 NVB=    94
   1 Symmetry operations used in ECPInt.
 ECPInt:  NShTT=    1275 NPrTT=    5909 LenC2=    1252 LenP2D=    4464.
 LDataN:  DoStor=T MaxTD1= 8 Len=  415
 Symmetrizing basis deriv contribution to polar:
 IMax=3 JMax=2 DiffMx= 0.00D+00
 G2DrvN: will do    12 centers at a time, making    1 passes.
 Calling FoFCou, ICntrl=  3107 FMM=F I1Cent=   0 AccDes= 0.00D+00.
 Defaulting to unpruned grid for atomic number  78.
 End of G2Drv F.D. properties file   721 does not exist.
 End of G2Drv F.D. properties file   722 does not exist.
 End of G2Drv F.D. properties file   788 does not exist.
          IDoAtm=11111111111
          Differentiating once with respect to electric field.
                with respect to dipole field.
          Differentiating once with respect to nuclear coordinates.
 Defaulting to unpruned grid for atomic number  78.
 Keep R1 ints in memory in canonical form, NReq=37576873.
 Defaulting to unpruned grid for atomic number  78.
          There are    36 degrees of freedom in the 1st order CPHF.  IDoFFX=6 NUNeed=     3.
     33 vectors produced by pass  0 Test12= 9.40D-15 2.78D-09 XBig12= 5.08D+01 4.25D+00.
 AX will form    33 AO Fock derivatives at one time.
     33 vectors produced by pass  1 Test12= 9.40D-15 2.78D-09 XBig12= 5.37D+00 6.19D-01.
     33 vectors produced by pass  2 Test12= 9.40D-15 2.78D-09 XBig12= 2.69D-01 1.14D-01.
     33 vectors produced by pass  3 Test12= 9.40D-15 2.78D-09 XBig12= 6.94D-03 1.40D-02.
     33 vectors produced by pass  4 Test12= 9.40D-15 2.78D-09 XBig12= 7.30D-05 2.45D-03.
     33 vectors produced by pass  5 Test12= 9.40D-15 2.78D-09 XBig12= 3.32D-07 1.31D-04.
     28 vectors produced by pass  6 Test12= 9.40D-15 2.78D-09 XBig12= 1.19D-09 7.81D-06.
      6 vectors produced by pass  7 Test12= 9.40D-15 2.78D-09 XBig12= 3.50D-12 4.37D-07.
      3 vectors produced by pass  8 Test12= 9.40D-15 2.78D-09 XBig12= 1.22D-14 2.26D-08.
 InvSVY:  IOpt=1 It=  1 EMax= 5.33D-15
 Solved reduced A of dimension   235 with    36 vectors.
 Isotropic polarizability for W=    0.000000       75.68 Bohr**3.
 End of Minotr F.D. properties file   721 does not exist.
 End of Minotr F.D. properties file   722 does not exist.
 End of Minotr F.D. properties file   788 does not exist.

 **********************************************************************

            Population analysis using the SCF Density.

 **********************************************************************

 Orbital symmetries:
       Occupied  (A) (A) (A) (A) (A) (A) (A) (A) (A) (A) (A) (A)
                 (A) (A) (A) (A) (A) (A) (A) (A) (A) (A) (A) (A)
                 (A) (A) (A) (A) (A) (A) (A) (A) (A) (A) (A) (A)
       Virtual   (A) (A) (A) (A) (A) (A) (A) (A) (A) (A) (A) (A)
                 (A) (A) (A) (A) (A) (A) (A) (A) (A) (A) (A) (A)
                 (A) (A) (A) (A) (A) (A) (A) (A) (A) (A) (A) (A)
                 (A) (A) (A) (A) (A) (A) (A) (A) (A) (A) (A) (A)
                 (A) (A) (A) (A) (A) (A) (A) (A) (A) (A) (A) (A)
                 (A) (A) (A) (A) (A) (A) (A) (A) (A) (A) (A) (A)
                 (A) (A) (A) (A) (A) (A) (A) (A) (A) (A) (A) (A)
                 (A) (A) (A) (A) (A) (A) (A) (A) (A) (A)
 The electronic state is 1-A.
 Alpha  occ. eigenvalues -- -102.57405-102.57405 -14.84419 -14.84419  -9.73604
 Alpha  occ. eigenvalues --   -9.73604  -7.45661  -7.45659  -7.45235  -7.45234
 Alpha  occ. eigenvalues --   -7.45221  -7.45221  -4.10229  -2.32244  -2.31830
 Alpha  occ. eigenvalues --   -2.28220  -1.05190  -1.04797  -0.83841  -0.83131
 Alpha  occ. eigenvalues --   -0.62941  -0.62918  -0.62561  -0.61661  -0.51831
 Alpha  occ. eigenvalues --   -0.50643  -0.40248  -0.37867  -0.37754  -0.37400
 Alpha  occ. eigenvalues --   -0.37125  -0.31262  -0.31201  -0.30085  -0.30010
 Alpha  occ. eigenvalues --   -0.28849
 Alpha virt. eigenvalues --   -0.04053  -0.01292   0.01562   0.01683   0.04098
 Alpha virt. eigenvalues --    0.10273   0.10934   0.11843   0.12154   0.12949
 Alpha virt. eigenvalues --    0.13785   0.14048   0.17428   0.19296   0.19564
 Alpha virt. eigenvalues --    0.21126   0.21918   0.22190   0.27683   0.33778
 Alpha virt. eigenvalues --    0.34279   0.54082   0.54284   0.57373   0.58128
 Alpha virt. eigenvalues --    0.58973   0.62334   0.63847   0.66735   0.67518
 Alpha virt. eigenvalues --    0.73093   0.74761   0.77266   0.79695   0.80547
 Alpha virt. eigenvalues --    0.82857   0.83791   0.85742   0.86657   0.88330
 Alpha virt. eigenvalues --    0.88721   0.90057   0.92079   0.94782   1.01171
 Alpha virt. eigenvalues --    1.01452   1.01593   1.03025   1.03726   1.07961
 Alpha virt. eigenvalues --    1.09249   1.09418   1.09669   1.12287   1.20255
 Alpha virt. eigenvalues --    1.21973   1.32923   1.38478   1.41846   1.43248
 Alpha virt. eigenvalues --    1.49090   1.52034   1.57631   1.66853   1.67411
 Alpha virt. eigenvalues --    2.03885   2.03905   2.06176   2.13381   2.23248
 Alpha virt. eigenvalues --    2.23598   2.24632   2.25456   2.34619   2.35428
 Alpha virt. eigenvalues --    2.36634   2.37432   2.62729   2.73795   2.76272
 Alpha virt. eigenvalues --    2.89117   2.90053   2.90064   2.91066   3.23980
 Alpha virt. eigenvalues --    3.24023   3.36252   3.36300   3.36341   3.40407
 Alpha virt. eigenvalues --   46.09435  46.18370  46.22865 115.10448
          Condensed to atoms (all electrons):
               1          2          3          4          5          6
     1  Pt  17.323444   0.272109   0.272097   0.060967  -0.010889  -0.010878
     2  Cl   0.272109  17.041102  -0.003470  -0.041946   0.000314   0.000318
     3  Cl   0.272097  -0.003470  17.041107  -0.003530   0.000041   0.000041
     4  N    0.060967  -0.041946  -0.003530   6.794736   0.334421   0.334420
     5  H   -0.010889   0.000314   0.000041   0.334421   0.375173  -0.022829
     6  H   -0.010878   0.000318   0.000041   0.334420  -0.022829   0.375186
     7  N    0.060996  -0.003529  -0.041963  -0.001848  -0.000443  -0.000444
     8  H   -0.010886   0.000041   0.000314  -0.000443   0.000072   0.000111
     9  H   -0.010878   0.000041   0.000319  -0.000444   0.000111   0.000072
    10  H   -0.006691   0.025487   0.000100   0.313595  -0.017019  -0.017013
    11  H   -0.006693   0.000100   0.025497   0.000178  -0.000014  -0.000014
               7          8          9         10         11
     1  Pt   0.060996  -0.010886  -0.010878  -0.006691  -0.006693
     2  Cl  -0.003529   0.000041   0.000041   0.025487   0.000100
     3  Cl  -0.041963   0.000314   0.000319   0.000100   0.025497
     4  N   -0.001848  -0.000443  -0.000444   0.313595   0.000178
     5  H   -0.000443   0.000072   0.000111  -0.017019  -0.000014
     6  H   -0.000444   0.000111   0.000072  -0.017013  -0.000014
     7  N    6.794723   0.334419   0.334419   0.000178   0.313589
     8  H    0.334419   0.375168  -0.022828  -0.000014  -0.017018
     9  H    0.334419  -0.022828   0.375190  -0.000014  -0.017012
    10  H    0.000178  -0.000014  -0.000014   0.336460   0.000001
    11  H    0.313589  -0.017018  -0.017012   0.000001   0.336462
 Mulliken charges:
               1
     1  Pt   0.067303
     2  Cl  -0.290567
     3  Cl  -0.290553
     4  N   -0.790107
     5  H    0.341060
     6  H    0.341028
     7  N   -0.790099
     8  H    0.341061
     9  H    0.341023
    10  H    0.364929
    11  H    0.364923
 Sum of Mulliken charges =  -0.00000
 Mulliken charges with hydrogens summed into heavy atoms:
               1
     1  Pt   0.067303
     2  Cl  -0.290567
     3  Cl  -0.290553
     4  N    0.256910
     7  N    0.256908
 APT charges:
               1
     1  Pt   0.792984
     2  Cl  -0.568035
     3  Cl  -0.568015
     4  N   -0.438162
     5  H    0.180314
     6  H    0.180284
     7  N   -0.438192
     8  H    0.180313
     9  H    0.180282
    10  H    0.249107
    11  H    0.249121
 Sum of APT charges =  -0.00000
 APT charges with hydrogens summed into heavy atoms:
               1
     1  Pt   0.792984
     2  Cl  -0.568035
     3  Cl  -0.568015
     4  N    0.171543
     7  N    0.171523
 Electronic spatial extent (au):  <R**2>=           1137.2717
 Charge=             -0.0000 electrons
 Dipole moment (field-independent basis, Debye):
    X=              0.0014    Y=             11.6077    Z=              0.0024  Tot=             11.6077
 Quadrupole moment (field-independent basis, Debye-Ang):
   XX=            -58.6211   YY=            -55.2966   ZZ=            -62.9514
   XY=             -0.0001   XZ=              0.0005   YZ=              0.0020
 Traceless Quadrupole moment (field-independent basis, Debye-Ang):
   XX=              0.3353   YY=              3.6598   ZZ=             -3.9951
   XY=             -0.0001   XZ=              0.0005   YZ=              0.0020
 Octapole moment (field-independent basis, Debye-Ang**2):
  XXX=              0.0155  YYY=             73.5671  ZZZ=              0.0089  XYY=             -0.0016
  XXY=             46.6262  XXZ=              0.0083  XZZ=              0.0022  YZZ=             19.8422
  YYZ=              0.0062  XYZ=             -0.0008
 Hexadecapole moment (field-independent basis, Debye-Ang**3):
 XXXX=           -735.9031 YYYY=           -541.2377 ZZZZ=            -85.8097 XXXY=              0.0042
 XXXZ=              0.0030 YYYX=             -0.0031 YYYZ=             -0.0441 ZZZX=             -0.0157
 ZZZY=             -0.0379 XXYY=           -200.8664 XXZZ=           -140.0187 YYZZ=            -98.9818
 XXYZ=             -0.0127 YYXZ=             -0.0020 ZZXY=              0.0017
 N-N= 4.071010590153D+02 E-N=-3.517250583786D+03  KE= 1.071779258261D+03
  Exact polarizability:      89.781       0.001      83.157       0.000       0.005      54.101
 Approx polarizability:      96.371       0.001      94.643       0.001       0.004      70.216
   1 Symmetry operations used in ECPInt.
 ECPInt:  NShTT=    1275 NPrTT=    5909 LenC2=    1252 LenP2D=    4464.
 LDataN:  DoStor=T MaxTD1= 9 Len=  602
 Calling FoFJK, ICntrl=    100127 FMM=F ISym2X=0 I1Cent= 0 IOpClX= 0 NMat=1 NMatS=1 NMatT=0.
 Defaulting to unpruned grid for atomic number  78.
 Full mass-weighted force constant matrix:
 Low frequencies ---   -9.9787   -8.5234   -0.0029   -0.0027   -0.0026   15.9176
 Low frequencies ---   92.3570  105.8048  125.4037
 Diagonal vibrational polarizability:
       18.2148467      27.4335127      15.1722971
 Harmonic frequencies (cm**-1), IR intensities (KM/Mole), Raman scattering
 activities (A**4/AMU), depolarization ratios for plane and unpolarized
 incident light, reduced masses (AMU), force constants (mDyne/A),
 and normal coordinates:
                      1                      2                      3
                      A                      A                      A
 Frequencies --     92.3521               105.7722               125.4036
 Red. masses --      1.1220                 1.0252                 3.0413
 Frc consts  --      0.0056                 0.0068                 0.0282
 IR Inten    --      0.0000                 0.0197                 0.0000
  Atom  AN      X      Y      Z        X      Y      Z        X      Y      Z
     1  78    -0.00  -0.00  -0.00    -0.00  -0.00   0.00     0.00  -0.00   0.00
     2  17     0.00  -0.00   0.02     0.00  -0.00  -0.01     0.00   0.00  -0.11
     3  17    -0.00  -0.00  -0.02     0.00   0.00  -0.01    -0.00  -0.00   0.11
     4   7     0.00   0.00  -0.06     0.00   0.00   0.01     0.00   0.00   0.21
     5   1     0.16   0.31  -0.27     0.19   0.31  -0.20     0.23   0.14   0.13
     6   1    -0.16  -0.31  -0.27    -0.19  -0.31  -0.20    -0.23  -0.14   0.13
     7   7    -0.00   0.00   0.06     0.00  -0.00   0.01    -0.00   0.00  -0.21
     8   1    -0.16   0.32   0.28     0.19  -0.30  -0.19    -0.23   0.13  -0.13
     9   1     0.16  -0.32   0.28    -0.19   0.30  -0.19     0.23  -0.13  -0.13
    10   1    -0.00  -0.00   0.31    -0.00  -0.00   0.41    -0.00  -0.00   0.52
    11   1     0.00  -0.00  -0.31    -0.00   0.00   0.40     0.00   0.00  -0.52
                      4                      5                      6
                      A                      A                      A
 Frequencies --    150.7709               155.5039               221.4502
 Red. masses --     24.9825                 5.1597                 3.3861
 Frc consts  --      0.3346                 0.0735                 0.0978
 IR Inten    --      0.1647                11.9274                21.2078
  Atom  AN      X      Y      Z        X      Y      Z        X      Y      Z
     1  78     0.00  -0.11  -0.00    -0.00  -0.00   0.09    -0.00  -0.02  -0.00
     2  17    -0.47   0.30   0.00    -0.00   0.00  -0.12     0.05  -0.03   0.00
     3  17     0.47   0.30   0.00     0.00   0.00  -0.12    -0.05  -0.03  -0.00
     4   7     0.16   0.03   0.00     0.00   0.00  -0.25     0.21   0.19   0.00
     5   1     0.26   0.03   0.00    -0.17   0.09  -0.32     0.32   0.20   0.00
     6   1     0.26   0.03  -0.00     0.17  -0.09  -0.32     0.32   0.20  -0.00
     7   7    -0.16   0.03  -0.00     0.00   0.00  -0.25    -0.21   0.19   0.00
     8   1    -0.26   0.03  -0.00    -0.17  -0.09  -0.32    -0.32   0.20  -0.00
     9   1    -0.26   0.03   0.00     0.17   0.09  -0.32    -0.32   0.20   0.00
    10   1     0.07   0.15  -0.00     0.00   0.00  -0.36     0.08   0.36  -0.00
    11   1    -0.07   0.15  -0.00     0.00   0.00  -0.36    -0.08   0.36   0.00
                      7                      8                      9
                      A                      A                      A
 Frequencies --    227.3703               325.7355               337.9680
 Red. masses --      4.3804                34.6916                35.0973
 Frc consts  --      0.1334                 2.1687                 2.3620
 IR Inten    --      0.1607                48.1999                38.3535
  Atom  AN      X      Y      Z        X      Y      Z        X      Y      Z
     1  78     0.06  -0.00   0.00    -0.14  -0.00  -0.00     0.00  -0.17  -0.00
     2  17    -0.08   0.10   0.00     0.45   0.48   0.00     0.41   0.49   0.00
     3  17    -0.08  -0.10  -0.00     0.45  -0.48  -0.00    -0.41   0.49   0.00
     4   7    -0.15  -0.20  -0.00    -0.11  -0.06  -0.00    -0.14  -0.02  -0.00
     5   1    -0.30  -0.21  -0.00    -0.05  -0.06   0.00    -0.12  -0.02  -0.00
     6   1    -0.30  -0.21  -0.00    -0.05  -0.06  -0.00    -0.12  -0.02   0.00
     7   7    -0.16   0.20   0.00    -0.11   0.06   0.00     0.14  -0.02   0.00
     8   1    -0.30   0.21  -0.00    -0.05   0.06   0.00     0.12  -0.02   0.00
     9   1    -0.30   0.21  -0.00    -0.05   0.06  -0.00     0.12  -0.02  -0.00
    10   1    -0.01  -0.40   0.00    -0.17   0.01   0.00    -0.16   0.02   0.00
    11   1    -0.01   0.40   0.00    -0.17  -0.01   0.00     0.16   0.02  -0.00
                     10                     11                     12
                      A                      A                      A
 Frequencies --    415.8831               429.2489               708.4275
 Red. masses --      4.3855                 4.6744                 1.1493
 Frc consts  --      0.4469                 0.5075                 0.3398
 IR Inten    --     10.1874                 2.7605                 0.0000
  Atom  AN      X      Y      Z        X      Y      Z        X      Y      Z
     1  78    -0.04  -0.00  -0.00    -0.00   0.03   0.00     0.00  -0.00   0.00
     2  17    -0.02  -0.00  -0.00     0.03   0.03   0.00    -0.00   0.00  -0.00
     3  17    -0.02   0.00  -0.00    -0.04   0.03   0.00    -0.00   0.00   0.00
     4   7     0.23  -0.26  -0.00     0.25  -0.25  -0.00    -0.00  -0.00   0.07
     5   1     0.33  -0.25   0.00     0.26  -0.25   0.00    -0.39   0.26  -0.13
     6   1     0.34  -0.25  -0.00     0.26  -0.25  -0.00     0.39  -0.26  -0.13
     7   7     0.23   0.26   0.00    -0.25  -0.25  -0.00    -0.00   0.00  -0.07
     8   1     0.34   0.25   0.00    -0.26  -0.25  -0.00     0.39   0.26   0.13
     9   1     0.34   0.25  -0.00    -0.26  -0.25   0.00    -0.39  -0.26   0.13
    10   1     0.13  -0.12  -0.00     0.23  -0.23  -0.00     0.00  -0.00  -0.17
    11   1     0.13   0.12   0.00    -0.23  -0.23  -0.00    -0.00  -0.00   0.17
                     13                     14                     15
                      A                      A                      A
 Frequencies --    730.5441               748.5248               790.3308
 Red. masses --      1.1523                 1.1996                 1.1595
 Frc consts  --      0.3623                 0.3960                 0.4267
 IR Inten    --     22.7388                 5.0513                82.4674
  Atom  AN      X      Y      Z        X      Y      Z        X      Y      Z
     1  78    -0.00  -0.00   0.01     0.01  -0.00   0.00     0.00   0.00   0.00
     2  17    -0.00  -0.00  -0.01    -0.01   0.00  -0.00    -0.00  -0.00  -0.00
     3  17     0.00   0.00  -0.01    -0.01  -0.00  -0.00     0.00  -0.00  -0.00
     4   7     0.00   0.00  -0.07    -0.07  -0.04  -0.00    -0.05  -0.05  -0.00
     5   1     0.38  -0.26   0.13     0.31  -0.00  -0.01     0.31  -0.01  -0.01
     6   1    -0.38   0.26   0.13     0.31  -0.00   0.01     0.31  -0.02   0.01
     7   7    -0.00   0.00  -0.07    -0.07   0.04   0.00     0.05  -0.05  -0.00
     8   1     0.38   0.26   0.13     0.31   0.00  -0.01    -0.31  -0.01   0.01
     9   1    -0.38  -0.26   0.13     0.31   0.00   0.01    -0.32  -0.02  -0.01
    10   1    -0.00   0.00   0.18    -0.38   0.40   0.00    -0.37   0.40   0.00
    11   1    -0.00  -0.00   0.18    -0.38  -0.40  -0.00     0.37   0.40   0.00
                     16                     17                     18
                      A                      A                      A
 Frequencies --   1282.3687              1291.3904              1641.4140
 Red. masses --      1.1686                 1.1713                 1.0568
 Frc consts  --      1.1323                 1.1509                 1.6776
 IR Inten    --    219.7310               130.0472                36.3630
  Atom  AN      X      Y      Z        X      Y      Z        X      Y      Z
     1  78    -0.00   0.00  -0.00     0.00   0.00  -0.00     0.00  -0.00   0.00
     2  17     0.00  -0.00   0.00    -0.00  -0.00  -0.00    -0.00   0.00  -0.00
     3  17     0.00   0.00   0.00     0.00  -0.00   0.00    -0.00  -0.00  -0.00
     4   7    -0.06   0.05   0.00     0.06  -0.05  -0.00     0.02   0.04   0.00
     5   1     0.34  -0.14   0.13    -0.35   0.14  -0.13    -0.12  -0.37   0.28
     6   1     0.34  -0.14  -0.13    -0.35   0.14   0.13    -0.12  -0.37  -0.28
     7   7    -0.06  -0.05  -0.00    -0.06  -0.05  -0.00     0.02  -0.04   0.00
     8   1     0.34   0.14   0.13     0.34   0.14   0.13    -0.12   0.37   0.28
     9   1     0.34   0.14  -0.13     0.34   0.14  -0.13    -0.12   0.37  -0.28
    10   1     0.25  -0.37  -0.00    -0.24   0.36   0.00    -0.10   0.20  -0.00
    11   1     0.25   0.37  -0.00     0.24   0.36  -0.00    -0.10  -0.20  -0.00
                     19                     20                     21
                      A                      A                      A
 Frequencies --   1649.7795              1674.5095              1681.5670
 Red. masses --      1.0562                 1.0595                 1.0587
 Frc consts  --      1.6938                 1.7504                 1.7638
 IR Inten    --     25.0359                 0.0002                55.8446
  Atom  AN      X      Y      Z        X      Y      Z        X      Y      Z
     1  78    -0.00  -0.00  -0.00     0.00  -0.00  -0.00     0.00  -0.00  -0.00
     2  17     0.00   0.00  -0.00    -0.00   0.00   0.00     0.00  -0.00  -0.00
     3  17    -0.00   0.00   0.00     0.00   0.00  -0.00     0.00   0.00  -0.00
     4   7    -0.02  -0.04  -0.00    -0.00  -0.00   0.04     0.00   0.00  -0.04
     5   1     0.12   0.37  -0.27     0.28   0.13  -0.05    -0.29  -0.13   0.05
     6   1     0.12   0.37   0.28    -0.28  -0.13  -0.05     0.29   0.13   0.05
     7   7     0.02  -0.04   0.00     0.00  -0.00  -0.04     0.00  -0.00  -0.04
     8   1    -0.12   0.37   0.27    -0.28   0.13   0.05    -0.29   0.13   0.05
     9   1    -0.12   0.37  -0.28     0.28  -0.13   0.05     0.29  -0.13   0.05
    10   1     0.10  -0.19   0.00     0.00   0.00  -0.54    -0.00  -0.00   0.54
    11   1    -0.10  -0.19  -0.00    -0.00   0.00   0.54    -0.00   0.00   0.54
                     22                     23                     24
                      A                      A                      A
 Frequencies --   3449.0170              3449.6088              3579.5746
 Red. masses --      1.0378                 1.0379                 1.0805
 Frc consts  --      7.2737                 7.2768                 8.1570
 IR Inten    --     46.1772                17.9767                 7.1660
  Atom  AN      X      Y      Z        X      Y      Z        X      Y      Z
     1  78    -0.00   0.00   0.00    -0.00  -0.00  -0.00    -0.00   0.00   0.00
     2  17    -0.00   0.00  -0.00     0.00   0.00   0.00    -0.00   0.00  -0.00
     3  17    -0.00  -0.00  -0.00    -0.00   0.00  -0.00    -0.00  -0.00  -0.00
     4   7    -0.03  -0.01  -0.00     0.03   0.01   0.00    -0.02  -0.05  -0.00
     5   1    -0.00  -0.15  -0.22     0.00   0.15   0.22    -0.01   0.24   0.36
     6   1    -0.00  -0.15   0.22     0.00   0.15  -0.22    -0.01   0.25  -0.36
     7   7    -0.03   0.01  -0.00    -0.03   0.01  -0.00    -0.02   0.05  -0.00
     8   1    -0.00   0.15  -0.22    -0.00   0.15  -0.22    -0.01  -0.24   0.35
     9   1    -0.00   0.15   0.22    -0.00   0.15   0.22    -0.01  -0.24  -0.35
    10   1     0.48   0.36   0.00    -0.48  -0.36  -0.00     0.30   0.20   0.00
    11   1     0.48  -0.36   0.00     0.48  -0.36   0.00     0.29  -0.20   0.00
                     25                     26                     27
                      A                      A                      A
 Frequencies --   3580.4034              3632.2464              3632.9065
 Red. masses --      1.0808                 1.0926                 1.0925
 Frc consts  --      8.1629                 8.4926                 8.4950
 IR Inten    --    105.4225                 0.0422                84.7426
  Atom  AN      X      Y      Z        X      Y      Z        X      Y      Z
     1  78    -0.00  -0.00  -0.00     0.00  -0.00  -0.00     0.00   0.00  -0.00
     2  17     0.00  -0.00   0.00    -0.00  -0.00   0.00     0.00  -0.00  -0.00
     3  17    -0.00  -0.00  -0.00     0.00  -0.00  -0.00     0.00   0.00  -0.00
     4   7     0.02   0.05   0.00     0.00   0.00  -0.06     0.00   0.00  -0.06
     5   1     0.01  -0.24  -0.35    -0.01   0.30   0.41    -0.01   0.29   0.39
     6   1     0.01  -0.24   0.35     0.01  -0.30   0.41     0.01  -0.29   0.39
     7   7    -0.02   0.05  -0.00    -0.00   0.00   0.06     0.00  -0.00  -0.06
     8   1    -0.01  -0.24   0.36     0.01   0.29  -0.39    -0.01  -0.30   0.41
     9   1    -0.01  -0.25  -0.36    -0.01  -0.29  -0.39     0.01   0.30   0.41
    10   1    -0.29  -0.20  -0.00    -0.00  -0.00  -0.01    -0.00  -0.00  -0.01
    11   1     0.30  -0.20   0.00    -0.00   0.00   0.01     0.00  -0.00  -0.01

 -------------------
 - Thermochemistry -
 -------------------
 Temperature   298.150 Kelvin.  Pressure   1.00000 Atm.
 Atom     1 has atomic number 78 and mass 194.96480
 Atom     2 has atomic number 17 and mass  34.96885
 Atom     3 has atomic number 17 and mass  34.96885
 Atom     4 has atomic number  7 and mass  14.00307
 Atom     5 has atomic number  1 and mass   1.00783
 Atom     6 has atomic number  1 and mass   1.00783
 Atom     7 has atomic number  7 and mass  14.00307
 Atom     8 has atomic number  1 and mass   1.00783
 Atom     9 has atomic number  1 and mass   1.00783
 Atom    10 has atomic number  1 and mass   1.00783
 Atom    11 has atomic number  1 and mass   1.00783
 Molecular mass:   298.95560 amu.
 Principal axes and moments of inertia in atomic units:
                           1         2         3
     Eigenvalues --   835.247151075.705331891.25824
           X            1.00000  -0.00000  -0.00002
           Y            0.00000   1.00000  -0.00018
           Z            0.00002   0.00018   1.00000
 This molecule is an asymmetric top.
 Rotational symmetry number  1.
 Warning -- assumption of classical behavior for rotation
           may cause significant error
 Rotational temperatures (Kelvin)      0.10370     0.08052     0.04580
 Rotational constants (GHZ):           2.16073     1.67773     0.95425
 Zero-point vibrational energy     215986.2 (Joules/Mol)
                                   51.62194 (Kcal/Mol)
 Warning -- explicit consideration of  11 degrees of freedom as
           vibrations may cause significant error
 Vibrational temperatures:    132.87   152.18   180.43   216.93   223.74
          (Kelvin)            318.62   327.14   468.66   486.26   598.36
                              617.59  1019.27  1051.09  1076.96  1137.11
                             1845.04  1858.02  2361.63  2373.66  2409.25
                             2419.40  4962.37  4963.22  5150.21  5151.40
                             5225.99  5226.94
 
 Zero-point correction=                           0.082265 (Hartree/Particle)
 Thermal correction to Energy=                    0.091340
 Thermal correction to Enthalpy=                  0.092284
 Thermal correction to Gibbs Free Energy=         0.046494
 Sum of electronic and zero-point Energies=          -1152.649517
 Sum of electronic and thermal Energies=             -1152.640442
 Sum of electronic and thermal Enthalpies=           -1152.639498
 Sum of electronic and thermal Free Energies=        -1152.685288
 
                     E (Thermal)             CV                S
                      KCal/Mol        Cal/Mol-Kelvin    Cal/Mol-Kelvin
 Total                   57.317             28.730             96.374
 Electronic               0.000              0.000              0.000
 Translational            0.889              2.981             42.982
 Rotational               0.889              2.981             28.920
 Vibrational             55.539             22.768             24.471
 Vibration     1          0.602              1.955              3.610
 Vibration     2          0.605              1.945              3.345
 Vibration     3          0.610              1.928              3.015
 Vibration     4          0.618              1.902              2.662
 Vibration     5          0.620              1.897              2.604
 Vibration     6          0.648              1.808              1.947
 Vibration     7          0.651              1.799              1.900
 Vibration     8          0.710              1.624              1.281
 Vibration     9          0.718              1.600              1.222
 Vibration    10          0.779              1.436              0.906
 Vibration    11          0.791              1.407              0.861
                       Q            Log10(Q)             Ln(Q)
 Total Bot       0.411566D-21        -21.385561        -49.242074
 Total V=0       0.284174D+17         16.453585         37.885780
 Vib (Bot)       0.434110D-35        -35.362400        -81.424935
 Vib (Bot)    1  0.222539D+01          0.347407          0.799933
 Vib (Bot)    2  0.193805D+01          0.287365          0.661683
 Vib (Bot)    3  0.162751D+01          0.211524          0.487053
 Vib (Bot)    4  0.134458D+01          0.128587          0.296081
 Vib (Bot)    5  0.130184D+01          0.114558          0.263779
 Vib (Bot)    6  0.892675D+00         -0.049307         -0.113533
 Vib (Bot)    7  0.867235D+00         -0.061863         -0.142445
 Vib (Bot)    8  0.575110D+00         -0.240249         -0.553194
 Vib (Bot)    9  0.550119D+00         -0.259543         -0.597620
 Vib (Bot)   10  0.423533D+00         -0.373113         -0.859125
 Vib (Bot)   11  0.406153D+00         -0.391311         -0.901026
 Vib (V=0)       0.299741D+03          2.476746          5.702918
 Vib (V=0)    1  0.278087D+01          0.444181          1.022764
 Vib (V=0)    2  0.250151D+01          0.398202          0.916895
 Vib (V=0)    3  0.220259D+01          0.342933          0.789632
 Vib (V=0)    4  0.193454D+01          0.286577          0.659868
 Vib (V=0)    5  0.189456D+01          0.277508          0.638985
 Vib (V=0)    6  0.152317D+01          0.182747          0.420791
 Vib (V=0)    7  0.150105D+01          0.176395          0.406164
 Vib (V=0)    8  0.126207D+01          0.101084          0.232754
 Vib (V=0)    9  0.124339D+01          0.094608          0.217843
 Vib (V=0)   10  0.115527D+01          0.062684          0.144335
 Vib (V=0)   11  0.114417D+01          0.058492          0.134683
 Electronic      0.100000D+01          0.000000          0.000000
 Translational   0.203172D+09          8.307864         19.129564
 Rotational      0.466633D+06          5.668975         13.053298
 ***** Axes restored to original set *****
 -------------------------------------------------------------------
 Center     Atomic                   Forces (Hartrees/Bohr)
 Number     Number              X              Y              Z
 -------------------------------------------------------------------
      1       78           0.000106557    0.000103396    0.000004440
      2       17          -0.000041559    0.000004759   -0.000003949
      3       17          -0.000000281   -0.000059282    0.000001094
      4        7           0.000053444   -0.000068279    0.000006738
      5        1          -0.000007620   -0.000002874    0.000002989
      6        1          -0.000007768   -0.000007330   -0.000005538
      7        7          -0.000079352    0.000060754   -0.000005002
      8        1          -0.000003379   -0.000005491   -0.000004416
      9        1          -0.000005074   -0.000007768    0.000004054
     10        1          -0.000025918    0.000010232   -0.000001061
     11        1           0.000010950   -0.000028118    0.000000650
 -------------------------------------------------------------------
 Cartesian Forces:  Max     0.000106557 RMS     0.000037737
 FormGI is forming the generalized inverse of G from B-inverse, IUseBI=4.

 GradGradGradGradGradGradGradGradGradGradGradGradGradGradGradGradGradGrad
 Berny optimization.
 Internal  Forces:  Max     0.000078020 RMS     0.000021717
 Search for a local minimum.
 Step number   1 out of a maximum of    2
 All quantities printed in internal units (Hartrees-Bohrs-Radians)
 Second derivative matrix not updated -- analytic derivatives used.
 ITU=  0
     Eigenvalues ---    0.00056   0.00063   0.04017   0.04035   0.04062
     Eigenvalues ---    0.04810   0.05687   0.06418   0.07870   0.08361
     Eigenvalues ---    0.09182   0.09260   0.09654   0.09851   0.10212
     Eigenvalues ---    0.11144   0.11525   0.13244   0.13973   0.19389
     Eigenvalues ---    0.19951   0.43447   0.43470   0.46090   0.46107
     Eigenvalues ---    0.46192   0.46211
 Angle between quadratic step and forces=  58.67 degrees.
 Linear search not attempted -- first point.
 Iteration  1 RMS(Cart)=  0.00059130 RMS(Int)=  0.00000014
 Iteration  2 RMS(Cart)=  0.00000015 RMS(Int)=  0.00000000
 Variable       Old X    -DE/DX   Delta X   Delta X   Delta X     New X
                                 (Linear)    (Quad)   (Total)
    R1        4.38348   0.00004   0.00000   0.00045   0.00045   4.38392
    R2        4.38337   0.00006   0.00000   0.00056   0.00056   4.38392
    R3        4.00620  -0.00007   0.00000  -0.00075  -0.00075   4.00545
    R4        4.00630  -0.00008   0.00000  -0.00085  -0.00085   4.00545
    R5        1.92180  -0.00000   0.00000   0.00000   0.00000   1.92181
    R6        1.92180  -0.00000   0.00000   0.00001   0.00001   1.92181
    R7        1.93521   0.00003   0.00000   0.00009   0.00009   1.93530
    R8        1.92180  -0.00000   0.00000   0.00001   0.00001   1.92181
    R9        1.92179  -0.00000   0.00000   0.00001   0.00001   1.92180
   R10        1.93520   0.00003   0.00000   0.00009   0.00009   1.93530
    A1        1.65938   0.00000   0.00000   0.00012   0.00012   1.65950
    A2        1.46145   0.00001   0.00000   0.00001   0.00001   1.46146
    A3        1.46139   0.00002   0.00000   0.00007   0.00007   1.46146
    A4        1.70096  -0.00003   0.00000  -0.00021  -0.00021   1.70076
    A5        1.99747   0.00000   0.00000   0.00016   0.00016   1.99763
    A6        1.99781  -0.00001   0.00000  -0.00018  -0.00018   1.99763
    A7        1.78630   0.00001   0.00000   0.00013   0.00013   1.78643
    A8        1.89942   0.00001   0.00000   0.00007   0.00007   1.89950
    A9        1.88695  -0.00000   0.00000  -0.00005  -0.00005   1.88689
   A10        1.88704  -0.00000   0.00000  -0.00015  -0.00015   1.88689
   A11        1.99754  -0.00000   0.00000   0.00008   0.00008   1.99762
   A12        1.99775  -0.00000   0.00000  -0.00011  -0.00011   1.99764
   A13        1.78626   0.00001   0.00000   0.00018   0.00018   1.78643
   A14        1.89944   0.00001   0.00000   0.00006   0.00006   1.89950
   A15        1.88695  -0.00000   0.00000  -0.00006  -0.00006   1.88689
   A16        1.88704  -0.00000   0.00000  -0.00015  -0.00015   1.88689
   A17        3.16242  -0.00002   0.00000  -0.00020  -0.00020   3.16222
   A18        3.16235  -0.00001   0.00000  -0.00013  -0.00013   3.16222
   A19        3.14148   0.00001   0.00000   0.00011   0.00011   3.14160
   A20        3.14160   0.00000   0.00000  -0.00000  -0.00000   3.14160
    D1        2.03600   0.00000   0.00000   0.00068   0.00068   2.03668
    D2       -2.03744   0.00001   0.00000   0.00077   0.00077  -2.03667
    D3       -0.00058   0.00000   0.00000   0.00059   0.00059   0.00001
    D4       -1.10548  -0.00001   0.00000   0.00057   0.00057  -1.10491
    D5        1.10426   0.00000   0.00000   0.00066   0.00066   1.10492
    D6        3.14112  -0.00000   0.00000   0.00048   0.00048  -3.14159
    D7        2.03591  -0.00000   0.00000   0.00069   0.00069   2.03660
    D8       -2.03750   0.00000   0.00000   0.00074   0.00074  -2.03676
    D9       -0.00069   0.00000   0.00000   0.00062   0.00062  -0.00007
   D10       -1.10569  -0.00000   0.00000   0.00069   0.00069  -1.10500
   D11        1.10409   0.00000   0.00000   0.00075   0.00075   1.10483
   D12        3.14090  -0.00000   0.00000   0.00062   0.00062   3.14152
         Item               Value     Threshold  Converged?
 Maximum Force            0.000078     0.000450     YES
 RMS     Force            0.000022     0.000300     YES
 Maximum Displacement     0.001633     0.001800     YES
 RMS     Displacement     0.000591     0.001200     YES
 Predicted change in Energy=-9.918548D-08
 Optimization completed.
    -- Stationary point found.
                           ----------------------------
                           !   Optimized Parameters   !
                           ! (Angstroms and Degrees)  !
 --------------------------                            --------------------------
 ! Name  Definition              Value          Derivative Info.                !
 --------------------------------------------------------------------------------
 ! R1    R(1,2)                  2.3196         -DE/DX =    0.0                 !
 ! R2    R(1,3)                  2.3196         -DE/DX =    0.0001              !
 ! R3    R(1,4)                  2.12           -DE/DX =   -0.0001              !
 ! R4    R(1,7)                  2.12           -DE/DX =   -0.0001              !
 ! R5    R(4,5)                  1.017          -DE/DX =    0.0                 !
 ! R6    R(4,6)                  1.017          -DE/DX =    0.0                 !
 ! R7    R(4,10)                 1.0241         -DE/DX =    0.0                 !
 ! R8    R(7,8)                  1.017          -DE/DX =    0.0                 !
 ! R9    R(7,9)                  1.017          -DE/DX =    0.0                 !
 ! R10   R(7,11)                 1.0241         -DE/DX =    0.0                 !
 ! A1    A(2,1,3)               95.0756         -DE/DX =    0.0                 !
 ! A2    A(2,1,4)               83.7351         -DE/DX =    0.0                 !
 ! A3    A(3,1,7)               83.7314         -DE/DX =    0.0                 !
 ! A4    A(4,1,7)               97.458          -DE/DX =    0.0                 !
 ! A5    A(1,4,5)              114.4464         -DE/DX =    0.0                 !
 ! A6    A(1,4,6)              114.4661         -DE/DX =    0.0                 !
 ! A7    A(1,4,10)             102.3475         -DE/DX =    0.0                 !
 ! A8    A(5,4,6)              108.829          -DE/DX =    0.0                 !
 ! A9    A(5,4,10)             108.114          -DE/DX =    0.0                 !
 ! A10   A(6,4,10)             108.1193         -DE/DX =    0.0                 !
 ! A11   A(1,7,8)              114.4505         -DE/DX =    0.0                 !
 ! A12   A(1,7,9)              114.4625         -DE/DX =    0.0                 !
 ! A13   A(1,7,11)             102.345          -DE/DX =    0.0                 !
 ! A14   A(8,7,9)              108.8301         -DE/DX =    0.0                 !
 ! A15   A(8,7,11)             108.1144         -DE/DX =    0.0                 !
 ! A16   A(9,7,11)             108.1197         -DE/DX =    0.0                 !
 ! A17   L(2,1,7,4,-1)         181.193          -DE/DX =    0.0                 !
 ! A18   L(3,1,4,7,-1)         181.1894         -DE/DX =    0.0                 !
 ! A19   L(2,1,7,4,-2)         179.9938         -DE/DX =    0.0                 !
 ! A20   L(3,1,4,7,-2)         180.0003         -DE/DX =    0.0                 !
 ! D1    D(2,1,4,5)            116.6543         -DE/DX =    0.0                 !
 ! D2    D(2,1,4,6)           -116.7367         -DE/DX =    0.0                 !
 ! D3    D(2,1,4,10)            -0.0334         -DE/DX =    0.0                 !
 ! D4    D(7,1,4,5)            -63.3395         -DE/DX =    0.0                 !
 ! D5    D(7,1,4,6)             63.2695         -DE/DX =    0.0                 !
 ! D6    D(7,1,4,10)          -180.0272         -DE/DX =    0.0                 !
 ! D7    D(3,1,7,8)            116.649          -DE/DX =    0.0                 !
 ! D8    D(3,1,7,9)           -116.74           -DE/DX =    0.0                 !
 ! D9    D(3,1,7,11)            -0.0395         -DE/DX =    0.0                 !
 ! D10   D(4,1,7,8)            -63.3513         -DE/DX =    0.0                 !
 ! D11   D(4,1,7,9)             63.2596         -DE/DX =    0.0                 !
 ! D12   D(4,1,7,11)           179.9602         -DE/DX =    0.0                 !
 --------------------------------------------------------------------------------
 GradGradGradGradGradGradGradGradGradGradGradGradGradGradGradGradGradGrad


 ----------------------------------------------------------------------

 Electric dipole moment (input orientation):
 (Debye = 10**-18 statcoulomb cm , SI units = C m)
                  (au)            (Debye)         (10**-30 SI)
   Tot        0.456683D+01      0.116077D+02      0.387192D+02
   x          0.322925D+01      0.820793D+01      0.273787D+02
   y          0.322923D+01      0.820788D+01      0.273785D+02
   z          0.954392D-03      0.242582D-02      0.809167D-02

 Dipole polarizability, Alpha (input orientation).
 (esu units = cm**3 , SI units = C**2 m**2 J**-1)
 Alpha(0;0):
               (au)            (10**-24 esu)      (10**-40 SI)
   iso        0.756793D+02      0.112145D+02      0.124778D+02
   aniso      0.328723D+02      0.487117D+01      0.541991D+01
   xx         0.864702D+02      0.128136D+02      0.142570D+02
   yx        -0.331198D+01     -0.490784D+00     -0.546071D+00
   yy         0.864669D+02      0.128131D+02      0.142565D+02
   zx         0.412471D-02      0.611218D-03      0.680072D-03
   zy         0.354585D-02      0.525441D-03      0.584632D-03
   zz         0.541007D+02      0.801689D+01      0.891999D+01

 ----------------------------------------------------------------------

 Dipole orientation:
    78         -0.01712883          0.01762380         -0.42397431
    17         -2.30380812          2.30408667         -3.38337538
    17          2.26938235         -2.26914717         -3.38310250
     7         -2.14615701          2.14686325          2.21860776
     1         -3.30835466          1.09789665          3.33318929
     1         -1.09740452          3.30749303          3.33500994
     7          2.11185297         -2.11177331          2.21866092
     1          3.27431357         -1.06300450          3.33314518
     1          1.06293130         -3.27218958          3.33512444
     1         -3.24709969          3.24928164          1.07072273
     1          3.21250394         -3.21439991          1.07070703

 Electric dipole moment (dipole orientation):
 (Debye = 10**-18 statcoulomb cm , SI units = C m)
                  (au)            (Debye)         (10**-30 SI)
   Tot        0.456683D+01      0.116077D+02      0.387192D+02
   x          0.000000D+00      0.000000D+00      0.000000D+00
   y          0.000000D+00      0.000000D+00      0.000000D+00
   z          0.456683D+01      0.116077D+02      0.387192D+02

 Dipole polarizability, Alpha (dipole orientation).
 (esu units = cm**3 , SI units = C**2 m**2 J**-1)
 Alpha(0;0):
               (au)            (10**-24 esu)      (10**-40 SI)
   iso        0.756793D+02      0.112145D+02      0.124778D+02
   aniso      0.328723D+02      0.487117D+01      0.541991D+01
   xx         0.719401D+02      0.106604D+02      0.118613D+02
   yx        -0.178399D+02     -0.264361D+01     -0.294141D+01
   yy         0.719411D+02      0.106606D+02      0.118615D+02
   zx         0.161867D-02      0.239863D-03      0.266883D-03
   zy        -0.701850D-03     -0.104003D-03     -0.115719D-03
   zz         0.831566D+02      0.123225D+02      0.137107D+02

 ----------------------------------------------------------------------
 Unable to Open any file for archive entry.
 1\1\GINC-D32CEPYC185\Freq\RM062X\GenECP\Cl2H6N2Pt1\MFARRUGI\12-Sep-202
 4\0\\#N Geom=AllCheck Guess=TCheck SCRF=Check GenChk RM062X/GenECP Fre
 q\\Cisplatin Opt Freq\\0,1\Pt,-0.1678403025,-0.1494490625,-0.000232058
 9\Cl,-2.4852041724,-0.0468037965,-0.0004733137\Cl,-0.0650695467,-2.466
 7484759,-0.0004671423\N,-0.305709142,1.9660544567,-0.0000141749\H,0.08
 12714411,2.4129484182,0.8274932331\H,0.0825518757,2.4135193638,-0.8266
 078216\N,1.9477117064,-0.2873399635,0.0002108933\H,2.3949379982,0.0997
 242174,-0.8270743863\H,2.3948562737,0.1007982947,0.8270348836\H,-1.318
 2139573,2.1195206397,-0.0006908778\H,2.1011238763,-1.2998495426,0.0008
 207656\\Version=ES64L-G16RevC.01\State=1-A\HF=-1152.7317816\RMSD=1.747
 e-09\RMSF=3.774e-05\ZeroPoint=0.0822648\Thermal=0.0913399\ETot=-1152.6
 404417\HTot=-1152.6394975\GTot=-1152.685288\Dipole=3.2292466,3.2292276
 ,0.0009544\DipoleDeriv=1.3108566,-0.2230774,0.0002014,-0.2230694,1.310
 8328,0.0001578,0.0002256,0.0001201,-0.2427371,-1.0744684,0.0740621,-0.
 000074,0.0722823,-0.3166316,0.0000125,-0.0000635,0.0000346,-0.313005,-
 0.3166249,0.0723237,-0.0000022,0.0741072,-1.0744329,-0.0000906,-0.0000
 306,-0.0000851,-0.3129862,-0.2484951,-0.0462506,-0.0000809,0.0659237,-
 0.9550745,-0.0000985,-0.0001024,-0.0000779,-0.1109157,0.1983887,-0.010
 0359,-0.0055573,-0.009109,0.1574784,0.0069563,-0.0132632,0.007772,0.18
 50743,0.198352,-0.0100201,0.0055912,-0.0091384,0.1573921,-0.0069287,0.
 0133067,-0.0078017,0.1851067,-0.9551052,0.0659206,-0.0001544,-0.046270
 9,-0.2485462,0.000044,-0.0001654,0.0001072,-0.1109251,0.1574552,-0.009
 1171,-0.006955,-0.010025,0.1983952,0.0055453,-0.0077941,0.0132572,0.18
 50883,0.1574033,-0.0091424,0.0069261,-0.0100281,0.198351,-0.0055968,0.
 0077871,-0.0133137,0.1850908,0.2595657,0.0814077,0.0000398,0.0139119,0
 .312646,-0.0000078,0.0000461,0.0000124,0.175109,0.312672,0.0139293,0.0
 000652,0.0814157,0.2595899,0.0000064,0.0000537,-0.000025,0.1751001\Pol
 ar=86.4701684,-3.3119757,86.466926,0.0041247,0.0035459,54.1006583\Quad
 rupole=1.4847632,1.4854684,-2.9702316,1.2358408,0.0013483,0.0007766\PG
 =C01 [X(Cl2H6N2Pt1)]\NImag=0\\0.26126141,-0.01723329,0.26132284,0.0000
 2432,0.00001612,0.09151851,-0.10308092,-0.00459453,-0.00001256,0.12745
 651,0.00150411,-0.02852088,-0.00000040,0.00470534,0.02416491,-0.000008
 79,-0.00000011,-0.01768618,0.00001486,0.00000099,0.00710219,-0.0285183
 4,0.00150775,-0.00000139,0.00043834,0.00537727,0.00000062,0.02416959,-
 0.00459332,-0.10311180,-0.00000863,0.00426503,0.00043959,0.00000031,0.
 00470602,0.12749224,-0.00000325,-0.00000706,-0.01768486,0.00000071,0.0
 0000061,0.00042813,0.00000437,0.00001412,0.00709826,-0.04127290,0.0069
 3991,0.00000268,-0.00580316,-0.01382657,-0.00000102,0.00708648,0.00158
 910,-0.00000091,0.66825246,-0.00151744,-0.07014597,-0.00000569,-0.0038
 7477,-0.00365531,-0.00000125,0.00284570,-0.01266296,-0.00000173,0.0836
 7352,0.35663565,0.00000514,-0.00000824,-0.03410985,-0.00000016,0.00000
 117,0.00348291,-0.00000068,-0.00000129,0.00951221,-0.00001745,-0.00007
 112,0.70106253,0.00137694,-0.00031734,0.00322442,-0.00060119,-0.001151
 07,0.00042258,-0.00018149,0.00065739,-0.00052431,-0.11333382,-0.062917
 68,-0.11055630,0.11532202,-0.00674757,-0.00427640,-0.01149396,0.000043
 17,-0.00047502,0.00036871,0.00092926,-0.00124992,0.00190726,-0.0804398
 6,-0.11497651,-0.15805098,0.07251000,0.11322070,0.00163428,-0.00226298
 ,0.00221013,-0.00007761,-0.00012543,-0.00031722,-0.00025586,0.00085857
 ,-0.00023523,-0.11518007,-0.12621980,-0.30764422,0.12684123,0.14431129
 ,0.32596417,0.00138065,-0.00031991,-0.00322698,-0.00060097,-0.00115466
 ,-0.00042158,-0.00018247,0.00065922,0.00052471,-0.11368246,-0.06318461
 ,0.11081033,0.00691408,0.00906139,-0.01491017,0.11570909,-0.00676769,-
 0.00427045,0.01147893,0.00004267,-0.00047626,-0.00036797,0.00093172,-0
 .00124982,-0.00190559,-0.08075768,-0.11518134,0.15806199,0.00907717,0.
 00646653,-0.01624634,0.07281919,0.11341775,-0.00164290,0.00226048,0.00
 221023,0.00007703,0.00012272,-0.00031724,0.00025666,-0.00085869,-0.000
 23541,0.11542272,0.12625601,-0.30709501,0.01496200,0.01628014,-0.02192
 233,-0.12711337,-0.14434767,0.32537097,-0.07011863,-0.00152119,-0.0000
 0551,-0.01265954,0.00284524,-0.00000479,-0.00365766,-0.00387696,-0.000
 00205,0.00185069,0.00204504,0.00000059,-0.00020454,0.00023534,-0.00005
 444,-0.00020458,0.00023643,0.00005466,0.35660247,0.00693736,-0.0412694
 5,-0.00000182,0.00158758,0.00708520,0.00000071,-0.01382941,-0.00580539
 ,-0.00000563,0.00634913,0.00185081,0.00000151,-0.00090886,0.00106565,-
 0.00015788,-0.00091109,0.00106861,0.00015824,0.08369933,0.66825328,-0.
 00000658,-0.00000730,-0.03410912,-0.00000190,0.00000066,0.00951085,-0.
 00000703,-0.00000298,0.00348419,0.00000081,0.00000085,-0.00037237,0.00
 003106,-0.00008984,0.00003397,-0.00003039,0.00008977,0.00003455,-0.000
 06272,0.00004671,0.70107450,-0.00427716,-0.00674744,0.01148901,-0.0012
 4973,0.00092936,-0.00190709,-0.00047492,0.00004292,-0.00036882,0.00106
 520,0.00023524,0.00009012,-0.00008160,0.00023510,0.00005403,-0.0005094
 9,0.00074102,0.00010050,-0.11509290,-0.08050771,0.15812538,0.11333572,
 -0.00031706,0.00137708,-0.00322466,0.00065755,-0.00018159,0.00052449,-
 0.00115129,-0.00060141,-0.00042323,-0.00090857,-0.00020453,-0.00003123
 ,0.00021681,-0.00008145,-0.00020029,0.00066701,-0.00051059,0.00006411,
 -0.06297923,-0.11335679,0.11055278,0.07258076,0.11534840,0.00226111,-0
 .00163679,0.00221422,-0.00085898,0.00025621,-0.00023605,0.00012531,0.0
 0007768,-0.00031745,0.00015819,0.00005444,0.00003408,0.00020029,-0.000
 05394,-0.00007259,0.00006461,0.00010023,0.00023290,0.12629539,0.115170
 55,-0.30751005,-0.14439440,-0.12683650,0.32582429,-0.00426634,-0.00676
 669,-0.01148148,-0.00124991,0.00093119,0.00190526,-0.00047668,0.000042
 51,0.00036801,0.00106883,0.00023661,-0.00008953,-0.00051074,0.00074150
 ,-0.00010020,-0.00008237,0.00023624,-0.00005440,-0.11507103,-0.0806916
 1,-0.15800010,0.00646692,0.00908114,0.01625886,0.11330687,-0.00031974,
 0.00137996,0.00322695,0.00065899,-0.00018231,-0.00052452,-0.00115535,-
 0.00060126,0.00042120,-0.00091118,-0.00020452,0.00003024,0.00066719,-0
 .00050963,-0.00006477,0.00021794,-0.00008249,0.00020108,-0.06312469,-0
 .11364927,-0.11080714,0.00905799,0.00691331,0.01491679,0.07275030,0.11
 567183,-0.00226149,0.00163991,0.00220565,0.00085816,-0.00025617,-0.000
 23455,-0.00012301,-0.00007716,-0.00031706,-0.00015803,-0.00005457,0.00
 003443,-0.00006427,-0.00010045,0.00023287,-0.00020107,0.00005449,-0.00
 007274,-0.12619261,-0.11542773,-0.30724307,-0.01626873,-0.01495424,-0.
 02192127,0.14427723,0.12711284,0.32552309,-0.00025458,0.00731354,0.000
 00013,-0.00159436,0.00134878,-0.00000124,0.00045920,-0.00147956,0.0000
 0007,-0.40438517,0.04395013,-0.00024170,-0.00886599,0.00370556,0.00202
 504,-0.00890808,0.00371539,-0.00203918,-0.00083521,-0.00032002,0.00000
 013,-0.00025255,0.00023808,0.00003677,-0.00025311,0.00023840,-0.000037
 02,0.42483138,0.02174017,-0.01223050,0.00001128,-0.00201137,0.00134260
 ,-0.00000098,-0.00150913,-0.00105547,-0.00000156,0.07861233,-0.0406197
 9,0.00006824,-0.01807177,0.00106867,0.00014448,-0.01809288,0.00107122,
 -0.00017339,-0.00149152,-0.00084612,-0.00000018,-0.00027379,0.00016625
 ,-0.00002388,-0.00027443,0.00016660,0.00002363,-0.05875588,0.05087807,
 0.00000316,0.00000160,0.00161566,0.00000017,-0.00000009,-0.00182470,-0
 .00000026,-0.00000089,0.00009190,-0.00022757,0.00004336,-0.06484691,-0
 .03442686,0.00682731,0.00176963,0.03439452,-0.00682343,0.00181370,-0.0
 0000014,-0.00000090,-0.00005779,-0.00009453,0.00010987,-0.00001919,0.0
 0009431,-0.00010934,-0.00001961,0.00025708,-0.00004757,0.06145342,-0.0
 1223013,0.02173918,-0.00001264,-0.00105506,-0.00150898,0.00000118,0.00
 133796,-0.00201237,0.00000146,-0.00084616,-0.00149176,-0.00000035,0.00
 016634,-0.00027389,0.00002377,0.00016662,-0.00027446,-0.00002371,-0.04
 060906,0.07859531,-0.00004865,0.00107052,-0.01808519,-0.00014716,0.001
 06757,-0.01807986,0.00017084,0.00005848,0.00012827,0.00000013,0.050872
 90,0.00731447,-0.00025442,0.00000189,-0.00147966,0.00045907,-0.0000003
 7,0.00134745,-0.00159379,0.00000160,-0.00032014,-0.00083552,-0.0000003
 0,0.00023816,-0.00025263,-0.00003684,0.00023840,-0.00025315,0.00003697
 ,0.04393220,-0.40439651,0.00021666,0.00370656,-0.00886869,-0.00202478,
 0.00371324,-0.00890223,0.00203945,0.00004558,0.00005848,0.00000009,-0.
 05873626,0.42483939,-0.00000499,0.00000439,0.00161562,0.00000027,-0.00
 000027,0.00009187,0.00000127,-0.00000104,-0.00182468,0.00000064,-0.000
 00050,-0.00005779,-0.00010983,0.00009445,-0.00001917,0.00010938,-0.000
 09440,-0.00001961,-0.00002837,0.00021624,-0.06484566,-0.00682546,0.034
 41890,0.00177113,0.00682203,-0.03440333,0.00181227,-0.00000008,-0.0000
 0008,0.00002389,0.00003516,-0.00023436,0.06145214\\-0.00010656,-0.0001
 0340,-0.00000444,0.00004156,-0.00000476,0.00000395,0.00000028,0.000059
 28,-0.00000109,-0.00005344,0.00006828,-0.00000674,0.00000762,0.0000028
 7,-0.00000299,0.00000777,0.00000733,0.00000554,0.00007935,-0.00006075,
 0.00000500,0.00000338,0.00000549,0.00000442,0.00000507,0.00000777,-0.0
 0000405,0.00002592,-0.00001023,0.00000106,-0.00001095,0.00002812,-0.00
 000065\\\@
 The archive entry for this job was punched.


 WE HAVE SEEN THAT MAN ON THE AVERAGE DOES NOT LIVE ABOVE
 TWO-AND-TWENTY YEARS.  DURING THESE TWO AND TWENTY
 YEARS HE IS LIABLE TO TWO AND TWENTY THOUSAND EVILS,
 MANY OF WHICH ARE INCURABLE.  YET EVEN IN THIS DREADFUL STATE
 MEN STILL STRUT AND POSE ON THE STAGE OF LIFE.
 THEY MAKE LOVE AT THE RISK OF DESTRUCTION,
 INTRIGUE, CARRY ON WAR, AND FORM PROJECTS, JUST AS IF THEY
 WERE TO LIVE IN LUXURY AND HAPPINESS FOR A THOUSAND
 AGES.

                                              -- VOLTAIRE
 Job cpu time:       0 days  0 hours  5 minutes  5.4 seconds.
 Elapsed time:       0 days  0 hours  5 minutes  6.9 seconds.
 File lengths (MBytes):  RWF=     31 Int=      0 D2E=      0 Chk=      3 Scr=      1
 Normal termination of Gaussian 16 at Thu Sep 12 11:41:23 2024.
